0 165
0 599
0 280
0 283
0 438
0 426
0 625
0 811
0 151
0 281
0 1003
0 291
0 187
0 250
0 268
0 274
0 299
0 806
0 1002
0 883
0 428
1 113
1 171
1 1050
1 235
1 189
1 94
1 1559
1 142
1 1218
1 202
1 1223
1 513
1 1495
1 1499
1 1639
1 1750
2 365
2 549
2 791
2 348
2 30
2 1248
2 1017
2 110
2 927
2 1225
2 332
2 493
2 369
2 787
2 1000
2 1008
2 1012
2 1020
2 1829
2 980
2 946
2 141
2 1080
2 1009
2 947
2 135
2 933
2 499
2 57
3 186
3 272
3 414
3 566
3 737
3 574
3 1160
3 941
3 923
3 938
3 1790
3 1053
3 62
3 288
3 943
3 1063
3 1389
3 1624
3 565
3 932
4 188
4 1922
4 290
4 307
4 7
4 371
4 35
4 15
4 141
4 1238
4 980
4 135
4 208
4 218
4 269
4 1637
4 1705
5 1162
5 378
5 743
5 970
5 957
5 287
5 246
5 1137
5 728
5 1244
5 405
5 1257
5 24
5 134
5 267
5 282
5 961
5 1161
5 1614
5 1835
5 1133
5 959
5 517
5 1148
5 1273
5 952
5 389
5 512
5 1266
5 1184
5 500
5 621
5 735
5 629
5 734
5 1279
5 1272
5 172
5 1140
6 107
6 18
6 1410
6 132
6 745
6 145
6 1160
6 737
6 566
6 744
6 272
6 414
6 124
6 152
6 222
6 1762
6 1851
7 371
7 141
7 980
7 188
7 307
7 1238
7 110
7 946
7 192
7 135
7 947
7 494
7 15
7 35
7 218
7 290
7 350
7 1015
7 1922
7 332
7 1009
7 989
7 76
7 309
7 927
7 260
7 933
7 365
7 490
7 1904
8 972
8 16
8 146
8 176
8 227
8 81
8 690
8 129
8 200
8 650
8 675
8 220
8 59
8 126
8 149
8 1916
8 54
8 527
8 663
8 788
8 691
9 299
9 1002
9 268
9 85
9 103
9 274
9 291
9 1418
9 1522
9 165
9 96
9 426
9 1513
9 1536
9 1553
9 1739
9 1742
9 1963
10 203
10 258
10 127
10 250
10 187
10 1552
10 151
10 170
10 88
10 234
10 1934
10 1126
10 111
10 1318
10 1334
10 1514
10 1779
10 1946
11 264
11 963
11 464
11 1156
11 693
11 454
11 462
11 239
11 795
11 799
11 261
11 197
11 26
11 101
11 257
11 749
11 1359
11 50
11 965
11 423
12 936
12 251
12 446
12 447
12 945
12 70
12 276
12 758
12 86
12 221
12 930
12 859
12 100
12 185
12 937
13 1186
13 1194
13 194
13 623
13 154
13 115
13 119
13 1671
13 471
13 1197
13 1292
13 516
13 61
13 199
13 1178
13 1187
13 1230
13 1231
13 1236
14 1074
14 491
14 586
14 22
14 155
14 712
14 476
14 482
14 1644
14 144
14 41
14 550
14 28
14 75
14 189
14 1529
14 524
14 587
14 833
14 569
14 481
14 228
14 483
15 260
15 1001
15 76
15 35
15 1238
15 188
15 112
15 247
15 371
15 933
15 91
15 105
15 157
15 208
15 290
15 1354
15 1504
15 1637
15 1654
15 1992
16 650
16 972
16 220
16 146
16 200
16 81
16 176
16 663
16 227
16 527
16 690
16 25
16 59
16 104
16 149
16 263
16 1646
16 129
17 861
17 286
17 209
17 482
17 570
17 1908
17 311
17 874
17 873
17 704
17 569
17 483
17 231
17 243
17 711
17 1054
17 169
17 34
17 22
17 587
17 1071
17 553
18 107
18 745
18 744
18 1410
18 1160
18 222
18 97
18 737
18 566
18 132
18 939
18 45
18 109
18 152
18 191
18 1488
18 1688
18 1762
18 1895
19 699
19 1196
19 860
19 150
19 858
19 871
19 703
19 859
19 158
19 120
19 56
19 123
19 133
19 432
19 447
19 865
19 701
19 683
19 751
19 872
19 70
19 298
19 708
19 1183
20 442
20 444
20 437
20 36
20 441
20 443
20 436
20 435
20 432
20 425
20 68
20 162
20 445
20 1723
21 57
21 1369
21 1023
21 493
21 348
21 332
21 549
21 277
21 927
21 369
21 76
21 1506
21 38
21 66
21 105
21 157
21 245
21 1323
21 1605
21 1921
21 135
22 483
22 311
22 712
22 481
22 704
22 482
22 491
22 1074
22 179
22 144
22 41
22 308
22 489
22 711
22 1644
22 169
22 587
22 569
22 155
22 586
23 670
23 1061
23 1031
23 822
23 1044
23 662
23 255
23 674
23 658
23 190
23 565
23 1034
23 31
23 52
23 99
23 554
23 659
23 730
23 1158
23 1783
23 905
23 1026
23 1027
23 939
23 932
23 938
23 935
23 1056
23 1045
23 913
23 726
23 552
23 167
23 556
23 1053
24 267
24 970
24 1161
24 969
24 378
24 1162
24 743
24 1184
24 735
24 206
24 512
24 137
24 232
24 1400
24 1519
24 1743
24 1835
24 1999
25 200
25 59
25 1646
25 146
25 950
25 140
25 168
25 244
25 147
25 972
25 106
25 104
25 149
25 214
26 968
26 122
26 197
26 242
26 101
26 261
26 106
26 953
26 967
26 963
26 244
26 32
26 214
26 1551
26 1657
26 1918
27 71
27 1112
27 819
27 1131
27 1126
27 250
27 170
27 108
27 1115
27 203
27 889
27 811
27 127
27 294
27 1541
27 1552
27 1630
28 1529
28 94
28 202
28 1050
28 1644
28 1074
28 223
28 524
28 113
28 846
28 606
28 235
28 1344
28 1709
28 1772
28 1840
28 1915
29 511
29 1262
29 1582
29 156
29 607
29 994
29 1253
29 265
29 521
29 977
29 1277
29 622
29 1397
29 1618
29 1741
29 1773
30 1248
30 791
30 348
30 369
30 330
30 549
30 493
30 1829
30 57
30 499
30 1225
30 277
30 1352
30 1449
30 1708
30 332
30 365
31 255
31 730
31 935
31 1158
31 659
31 949
31 822
31 556
31 1034
31 1027
31 1056
31 160
31 230
31 249
31 1038
31 1721
32 1447
32 1551
32 101
32 1359
32 1808
32 1157
32 1686
32 749
32 401
32 72
32 237
32 1314
32 1657
32 1891
32 1918
33 79
33 988
33 370
33 998
33 63
33 993
33 990
33 240
33 983
33 987
33 997
33 1966
33 1812
33 1885
33 1955
34 720
34 1208
34 587
34 243
34 209
34 286
34 1206
34 1071
34 874
34 153
34 41
34 582
34 164
34 862
34 1207
34 833
34 569
34 584
34 518
34 482
34 873
34 855
34 586
34 704
34 1214
34 706
35 1001
35 260
35 112
35 188
35 1238
35 1015
35 371
35 350
35 1904
35 218
35 247
35 290
35 1354
35 1504
35 1654
36 437
36 441
36 432
36 442
36 162
36 444
36 858
36 531
36 534
36 860
36 682
36 436
36 1723
37 43
37 1198
37 44
37 1261
37 340
37 1171
37 613
37 1298
37 1278
37 621
37 612
37 139
37 1395
37 1769
37 1269
37 523
37 1250
37 1170
37 1295
37 734
37 405
38 1023
38 1012
38 1014
38 1008
38 549
38 1605
38 1000
38 927
38 57
38 348
38 245
38 1323
38 1352
38 1449
38 1506
38 1940
39 837
39 1215
39 180
39 1214
39 906
39 832
39 1224
39 231
39 1220
39 825
39 1211
39 841
39 164
39 915
39 918
40 211
40 114
40 663
40 527
40 799
40 264
40 263
40 650
40 763
40 1085
40 788
40 1086
40 1480
40 1667
41 587
41 153
41 586
41 706
41 155
41 476
41 491
41 1206
41 1208
41 833
41 522
41 569
41 481
41 483
41 1074
41 849
41 286
41 704
41 209
41 1071
41 514
41 582
41 584
41 518
41 311
41 77
41 616
41 1216
41 173
41 228
41 846
41 606
41 720
41 482
42 1100
42 640
42 1476
42 73
42 271
42 241
42 89
42 1819
42 1124
42 226
42 259
42 1148
42 148
42 1302
42 1413
42 1797
42 1835
42 1961
43 1198
43 44
43 1298
43 1261
43 1278
43 340
43 621
43 1250
43 612
43 959
43 613
43 139
43 1395
43 1769
43 1295
43 734
43 1171
43 1226
43 405
43 1269
43 389
43 402
43 500
43 205
44 1278
44 1298
44 1261
44 1198
44 959
44 621
44 1250
44 340
44 1177
44 205
44 82
44 1395
44 1769
44 1909
44 1272
44 405
44 1269
44 389
44 402
44 1257
44 500
44 612
44 1289
44 1295
44 734
44 1273
44 604
44 287
44 1226
44 610
45 222
45 109
45 1762
45 97
45 552
45 1488
45 551
45 1045
45 744
45 107
45 905
45 102
45 191
45 1337
45 1438
45 1575
45 1580
45 1688
45 1895
46 294
46 196
46 108
46 278
46 48
46 895
46 285
46 1112
46 1115
46 96
46 53
46 1325
46 111
46 138
46 175
46 1500
46 1552
46 1640
46 1844
46 1954
47 1007
47 58
47 1006
47 1522
47 1018
47 1931
47 1004
47 434
47 1003
47 426
47 883
47 899
47 87
47 1479
47 1513
47 1544
47 1553
47 1963
48 196
48 285
48 53
48 895
48 163
48 1325
48 108
48 278
48 294
48 1115
48 1145
48 87
48 175
48 1362
48 1500
48 1544
48 1844
48 1982
49 204
49 259
49 198
49 69
49 1291
49 1264
49 226
49 517
49 246
49 67
49 1133
49 600
49 51
49 65
49 80
49 89
49 195
49 271
49 1319
49 1643
49 1988
49 1177
49 1273
49 604
49 610
50 1165
50 423
50 121
50 1083
50 654
50 1156
50 264
50 763
50 420
50 400
50 666
50 404
50 114
50 257
50 732
50 773
50 1359
50 1085
50 1086
50 754
50 688
50 756
50 771
50 678
50 410
51 148
51 271
51 198
51 1476
51 80
51 1588
51 259
51 69
51 89
51 73
51 241
51 1311
51 1343
51 1346
51 1713
51 1730
51 1805
51 1953
52 99
52 296
52 190
52 1031
52 670
52 1061
52 167
52 662
52 193
52 815
52 1783
52 78
52 1038
52 1611
52 1721
53 1145
53 163
53 108
53 1112
53 1325
53 889
53 1982
53 1115
53 895
53 196
53 292
53 1362
53 1500
53 1541
54 129
54 956
54 227
54 691
54 238
54 84
54 972
54 973
54 965
54 954
54 675
54 795
54 59
54 126
54 140
54 146
54 690
54 125
54 239
54 778
54 967
54 788
54 951
54 106
54 953
54 464
54 200
54 468
54 457
54 261
54 197
54 693
55 212
55 262
55 1798
55 1948
55 503
55 1299
55 273
55 1205
55 116
55 1290
55 607
55 215
55 1495
55 1828
56 150
56 858
56 699
56 930
56 758
56 162
56 68
56 446
56 945
56 441
56 751
56 93
56 182
56 185
56 221
56 679
56 719
56 928
56 1196
56 683
56 872
56 447
56 860
56 1183
56 70
56 859
57 493
57 348
57 369
57 549
57 332
57 277
57 1248
57 365
57 927
57 135
57 66
57 245
57 1023
57 1323
57 1369
57 1449
57 1506
57 1605
57 1225
58 87
58 1007
58 1004
58 1544
58 1006
58 1013
58 1011
58 1022
58 1522
58 1538
58 1018
58 175
58 1479
58 1513
58 1546
58 1553
58 1963
59 146
59 200
59 140
59 227
59 972
59 690
59 129
59 136
59 1491
59 1916
60 173
60 223
60 846
60 522
60 1324
60 1885
60 829
60 514
60 606
60 706
60 155
60 270
60 1707
60 1728
61 1193
61 1081
61 1099
61 471
61 1188
61 1192
61 885
61 469
61 1089
61 890
61 894
61 1194
62 1063
62 572
62 922
62 560
62 1058
62 236
62 124
62 1069
62 1790
62 923
62 413
62 1764
62 1803
62 1832
63 1966
63 978
63 998
63 987
63 352
63 983
63 1324
63 990
63 605
63 370
63 997
63 1462
63 1885
64 696
64 679
64 762
64 676
64 1181
64 857
64 719
64 174
64 764
64 682
64 766
64 769
64 93
64 926
64 1845
65 1326
65 1988
65 1746
65 1385
65 80
65 195
65 1319
65 148
65 198
65 1953
65 89
65 1446
65 1539
65 1788
65 1796
65 1823
65 1930
66 1369
66 1921
66 1506
66 269
66 277
66 1959
66 208
66 1605
66 493
66 332
66 1323
66 1593
67 1177
67 610
67 604
67 1264
67 600
67 1291
67 333
67 1289
67 1133
67 517
67 172
67 347
67 195
67 284
67 507
67 500
67 349
67 1298
67 1278
67 959
67 1137
67 1273
67 226
67 389
67 402
67 204
67 1266
67 1257
67 1250
68 930
68 441
68 928
68 185
68 162
68 437
68 858
68 221
68 442
68 93
68 699
68 435
68 443
68 679
69 204
69 259
69 246
69 198
69 1272
69 282
69 1291
69 957
69 517
69 1264
69 1273
69 80
69 224
69 271
69 1319
69 1614
69 1643
69 1713
69 1988
70 859
70 276
70 298
70 871
70 123
70 936
70 1196
70 120
70 150
70 447
70 699
70 703
70 86
70 100
70 251
70 446
70 702
70 721
70 758
70 934
70 937
70 945
70 133
70 751
70 1183
70 701
71 819
71 1131
71 1126
71 1112
71 889
71 1115
71 811
71 250
71 108
71 625
71 256
71 170
71 203
71 294
71 1630
71 895
71 281
71 438
71 1145
72 1824
72 1792
72 1808
72 742
72 159
72 1533
72 116
72 733
72 409
72 98
72 749
72 736
72 1464
72 1725
72 1891
73 89
73 241
73 226
73 1100
73 1476
73 195
73 600
73 259
73 216
73 1148
73 271
73 148
73 198
73 1326
73 1819
74 362
74 361
74 991
74 520
74 843
74 1976
74 357
74 892
74 356
74 866
74 352
74 842
74 978
74 1190
75 223
75 155
75 491
75 308
75 712
75 1074
75 240
75 489
75 522
75 1644
75 481
75 477
75 1368
75 1840
75 1915
76 260
76 1023
76 1238
76 1369
76 188
76 927
76 933
76 135
76 371
76 1001
76 91
76 105
76 157
76 208
76 247
76 290
76 1637
76 332
76 365
77 849
77 582
77 616
77 833
77 518
77 1216
77 584
77 524
77 1206
77 476
77 848
77 1071
77 228
77 513
77 606
77 830
77 1050
77 1066
77 209
77 569
77 1220
77 173
77 553
77 720
77 482
77 845
77 1208
77 161
77 550
77 1214
77 706
77 587
77 829
77 1218
77 844
77 1207
77 846
77 270
77 1209
77 1211
77 514
77 153
77 586
77 522
77 1074
78 1611
78 193
78 296
78 99
78 229
78 1894
78 167
78 102
78 1488
78 1337
78 190
78 1424
78 1438
78 1477
78 1749
78 1756
78 1759
79 240
79 308
79 481
79 153
79 155
79 179
79 495
79 522
79 988
79 706
79 990
79 1812
79 1885
79 1955
80 1988
80 1319
80 198
80 1713
80 204
80 1643
80 148
80 1588
80 1311
80 1385
80 1823
81 176
81 690
81 295
81 675
81 755
81 220
81 227
81 972
81 663
81 650
81 126
81 687
81 760
81 1916
81 691
81 540
81 788
82 224
82 1643
82 1319
82 205
82 1291
82 1272
82 204
82 1177
82 1278
82 1769
82 959
82 1713
82 1909
82 1988
83 321
83 490
83 498
83 309
83 306
83 989
83 320
83 479
83 307
83 494
83 1471
83 1922
83 269
83 1524
83 1637
83 1705
83 1720
83 1758
84 956
84 965
84 239
84 954
84 973
84 953
84 967
84 238
84 129
84 454
84 197
84 122
84 125
84 457
84 468
84 691
84 951
84 968
84 1173
84 106
84 227
84 462
84 972
84 464
84 963
84 455
84 778
84 261
84 463
84 693
84 677
84 795
85 268
85 291
85 274
85 103
85 299
85 1002
85 96
85 1934
85 165
85 1742
85 1418
85 258
85 266
85 1536
85 1739
86 100
86 276
86 936
86 945
86 446
86 758
86 721
86 298
86 1183
86 182
86 210
86 948
86 1431
86 1794
87 1544
87 285
87 175
87 96
87 103
87 1018
87 278
87 196
87 1004
87 1479
87 1536
87 1568
87 1844
88 234
88 170
88 131
88 203
88 1126
88 253
88 819
88 151
88 1131
88 427
88 625
88 1514
88 1630
88 1779
88 1944
89 241
89 195
89 226
89 600
89 259
89 1476
89 198
89 1100
89 216
89 284
89 148
89 271
89 1326
89 1510
90 467
90 154
90 623
90 472
90 194
90 456
90 471
90 1270
90 469
90 450
90 465
90 1283
90 98
90 460
90 466
90 1267
90 1280
90 1255
90 506
90 1671
90 624
90 619
90 1292
90 1281
91 157
91 105
91 1992
91 247
91 128
91 1654
91 208
91 1682
91 1379
91 1506
91 1327
91 1382
91 1584
91 1634
91 1724
92 427
92 812
92 1048
92 253
92 806
92 281
92 280
92 599
92 438
92 283
92 428
92 899
92 131
92 234
92 279
92 818
92 821
93 679
93 162
93 441
93 221
93 930
93 437
93 1181
93 442
93 182
93 948
93 1845
94 202
94 1529
94 1050
94 235
94 142
94 606
94 524
94 513
94 113
94 846
94 1344
94 1388
94 1709
94 1750
94 1772
95 116
95 1200
95 273
95 453
95 470
95 912
95 1290
95 159
95 917
95 98
95 1299
95 854
95 474
95 1495
95 1798
95 1948
96 278
96 291
96 883
96 1003
96 895
96 294
96 811
96 426
96 1018
96 1115
96 1002
96 103
96 285
96 1536
96 1544
97 905
97 744
97 726
97 1026
97 939
97 552
97 745
97 1061
97 167
97 1031
97 1045
97 670
97 107
97 222
97 229
97 296
97 1337
97 1488
97 1575
97 1160
97 658
97 913
97 662
97 99
97 938
97 1044
97 551
97 190
98 453
98 460
98 467
98 912
98 1270
98 472
98 116
98 474
98 465
98 273
98 159
98 1464
98 1533
98 1792
98 1948
99 167
99 670
99 1031
99 1061
99 905
99 726
99 1026
99 296
99 190
99 674
99 193
99 229
99 554
99 1611
99 1783
99 658
99 662
99 744
99 1045
99 939
100 276
100 936
100 945
100 721
100 446
100 758
100 298
100 1183
100 1794
100 210
100 948
100 1431
101 1447
101 1808
101 122
101 1359
101 197
101 749
101 1156
101 736
101 968
101 1533
101 1551
101 1657
101 1686
101 1918
102 1438
102 1337
102 296
102 1749
102 1488
102 1611
102 109
102 193
102 222
102 1045
102 1580
102 1759
102 1894
103 299
103 1002
103 268
103 291
103 1418
103 274
103 1522
103 1003
103 1479
103 1536
103 1739
103 1742
103 1963
104 149
104 1646
104 263
104 650
104 200
104 950
104 220
104 146
104 106
104 214
104 1659
104 1770
105 157
105 247
105 1023
105 260
105 1001
105 1369
105 1654
105 208
105 128
105 245
105 1327
105 1379
105 1382
105 1682
105 1992
106 242
106 968
106 261
106 953
106 197
106 244
106 972
106 973
106 956
106 967
106 954
106 129
106 200
106 214
106 263
106 950
106 1646
106 795
106 799
106 464
106 963
106 965
106 527
106 693
106 239
107 745
107 1410
107 132
107 744
107 1160
107 737
107 145
107 566
107 414
107 152
107 222
107 293
107 1649
107 1688
107 1762
108 1115
108 895
108 278
108 889
108 1112
108 1145
108 294
108 811
108 819
108 163
108 196
108 285
108 1325
108 1362
108 1982
108 1010
108 1131
109 574
109 551
109 552
109 186
109 191
109 566
109 1045
109 737
109 1160
109 272
109 222
109 1762
110 946
110 947
110 980
110 141
110 371
110 365
110 192
110 494
110 1238
110 307
110 135
110 248
110 350
110 1009
110 1080
110 1904
110 549
110 188
110 309
110 927
110 498
110 1225
110 301
110 166
110 1015
110 344
110 942
110 933
110 332
110 985
110 490
110 989
111 1552
111 127
111 258
111 1934
111 138
111 203
111 294
111 1954
111 250
111 1742
111 266
111 1330
111 1373
111 1386
111 1429
111 1451
111 1452
111 1912
111 1938
112 1001
112 260
112 1015
112 1009
112 1904
112 1238
112 350
112 933
112 275
112 1008
112 247
112 1354
112 1504
112 1619
112 1654
112 1993
113 189
113 1050
113 550
113 1529
113 524
113 1066
113 228
113 1211
113 202
113 1559
113 1639
114 211
114 400
114 1165
114 763
114 654
114 1667
114 754
114 1086
114 1083
114 264
114 1877
115 119
115 199
115 879
115 885
115 461
115 979
115 1671
115 892
115 1194
115 994
115 505
115 1178
115 1192
115 1195
115 1231
115 1236
116 1948
116 273
116 159
116 1798
116 912
116 1299
116 1200
116 1290
116 453
116 1464
116 1495
116 1625
116 1792
116 1828
117 1128
117 1118
117 1129
117 952
117 629
117 382
117 1124
117 1120
117 636
117 1184
117 512
117 375
117 634
117 1123
117 1519
117 1835
117 1961
117 630
117 1140
117 328
118 1288
118 1297
118 1282
118 1259
118 1268
118 1260
118 1265
118 1263
118 1267
118 1293
118 617
118 1296
118 1294
118 1753
118 1815
118 519
118 1271
118 521
118 1253
118 1255
118 502
118 1256
118 1251
118 624
118 183
119 879
119 979
119 1671
119 885
119 461
119 994
119 504
119 1280
119 850
119 510
119 505
119 199
119 1194
119 1236
119 1292
119 1281
119 1212
119 450
119 194
120 123
120 701
120 703
120 298
120 1196
120 1185
120 859
120 871
120 751
120 721
120 1183
120 723
120 130
120 158
120 276
120 702
120 708
120 872
120 699
120 150
120 860
120 683
121 1083
121 654
121 763
121 754
121 666
121 678
121 771
121 688
121 1086
121 1165
121 775
121 400
121 410
121 732
121 773
121 1426
121 1156
121 540
121 423
121 788
121 1085
121 420
121 404
121 756
121 264
121 1971
122 967
122 197
122 968
122 953
122 954
122 454
122 239
122 125
122 1173
122 958
122 1657
123 298
123 701
123 703
123 1196
123 859
123 1185
123 871
123 721
123 1183
123 751
123 130
123 150
123 276
123 699
123 702
123 708
123 723
123 872
123 860
123 683
123 158
124 236
124 145
124 132
124 1410
124 1058
124 923
124 566
124 272
124 737
124 414
124 1764
124 1832
124 1859
125 954
125 973
125 951
125 967
125 958
125 971
125 953
125 181
125 964
125 197
125 956
125 136
125 147
125 168
125 244
125 968
125 454
125 239
125 238
125 965
126 690
126 1916
126 760
126 176
126 227
126 532
126 675
126 750
126 691
126 1491
127 1552
127 258
127 203
127 170
127 250
127 1934
127 1514
127 1779
127 294
127 1386
127 1429
127 1452
127 1912
127 1946
127 1950
127 1954
128 208
128 1637
128 1992
128 290
128 1682
128 247
128 157
128 1654
128 269
128 1922
128 1327
128 1379
128 1412
128 1705
128 1758
128 1921
129 956
129 227
129 691
129 972
129 238
129 965
129 973
129 795
129 675
129 146
129 200
129 690
129 953
129 693
129 756
129 261
129 197
129 239
129 663
129 799
129 788
129 1085
129 464
129 963
129 468
129 778
129 954
129 967
129 527
130 1185
130 872
130 701
130 721
130 751
130 1183
130 298
130 713
130 708
130 703
130 210
130 715
130 722
130 724
130 857
130 1794
130 683
131 821
131 234
131 427
131 253
131 812
131 1623
131 806
131 1048
131 151
131 599
131 1436
131 1933
131 1944
132 1410
132 145
132 236
132 737
132 566
132 1160
132 745
132 272
132 152
132 1357
132 1851
132 1859
132 414
133 944
133 447
133 217
133 871
133 432
133 699
133 865
133 1196
133 859
133 928
133 184
133 213
133 225
133 251
133 934
133 937
133 858
133 703
133 150
133 860
134 961
134 743
134 970
134 287
134 205
134 405
134 267
134 1272
134 378
134 1261
134 282
134 206
134 224
134 1400
134 1574
135 332
135 141
135 192
135 980
135 307
135 371
135 188
135 365
135 1225
135 1238
135 493
135 1369
135 1922
135 933
135 946
135 490
135 989
135 494
135 549
135 309
135 927
135 348
135 166
135 947
135 344
136 140
136 964
136 974
136 951
136 971
136 168
136 147
136 232
136 958
136 960
136 412
136 201
136 955
137 1981
137 1614
137 1805
137 1727
137 1835
137 282
137 1400
137 267
137 1999
137 1162
137 1743
137 1343
137 1569
137 1597
138 1954
138 1552
138 294
138 1938
138 1640
138 1742
138 258
138 285
138 196
138 1536
138 266
138 1330
139 1170
139 1169
139 1171
139 422
139 738
139 966
139 727
139 1943
139 1275
139 1163
139 746
139 1574
139 1769
140 964
140 951
140 168
140 147
140 973
140 971
140 200
140 146
140 201
141 980
141 192
141 307
141 371
141 946
141 947
141 309
141 494
141 490
141 188
141 332
141 989
141 1225
141 1238
141 1922
141 933
141 321
141 499
141 927
141 498
141 493
141 365
141 1080
141 1009
141 166
141 344
142 513
142 171
142 834
142 1218
142 1209
142 1216
142 606
142 829
142 845
142 1204
142 616
142 844
142 202
142 215
142 235
143 233
143 996
143 316
143 497
143 254
143 305
143 225
143 1450
143 310
143 865
143 373
143 475
143 322
143 1720
144 1644
144 712
144 1074
144 482
144 550
144 483
144 311
144 491
144 189
144 1054
144 1529
144 1910
145 1410
145 236
145 737
145 566
145 272
145 1160
145 414
145 923
145 191
145 1859
145 1058
146 200
146 972
146 227
146 690
146 176
146 149
146 220
146 650
146 1646
146 1916
147 168
147 244
147 964
147 971
147 958
147 950
147 955
147 973
147 242
147 951
147 214
147 968
147 954
148 1476
148 1953
148 198
148 241
148 271
148 1326
148 1588
148 1311
148 1346
148 1456
148 1730
148 1746
148 1796
148 1930
149 1646
149 263
149 650
149 220
149 200
149 950
149 972
149 1659
149 1770
150 699
150 859
150 858
150 1196
150 703
150 751
150 1183
150 871
150 182
150 221
150 432
150 446
150 447
150 719
150 758
150 860
150 872
150 930
150 945
150 683
150 298
150 721
150 158
150 701
150 276
151 187
151 165
151 599
151 280
151 438
151 806
151 283
151 274
151 625
151 281
151 234
151 268
151 1318
151 1334
151 1996
152 222
152 1762
152 1649
152 745
152 293
152 1410
152 1688
152 744
152 1357
152 1575
152 1580
152 1851
152 1895
153 706
153 522
153 587
153 586
153 514
153 155
153 1206
153 1208
153 476
153 584
153 582
153 173
153 481
153 491
153 518
153 1074
153 209
153 1071
153 616
153 569
153 606
153 720
153 605
153 849
153 1216
153 833
153 846
153 270
154 623
154 194
154 471
154 1292
154 1671
154 1186
154 516
154 467
154 506
154 1281
154 450
154 469
154 1197
154 1280
154 472
154 1255
154 456
154 207
154 624
154 619
154 1283
154 1287
155 491
155 522
155 586
155 706
155 1074
155 476
155 846
155 223
155 173
155 514
155 240
155 481
155 1644
155 606
155 1208
155 587
155 712
155 833
155 582
155 584
155 1206
155 616
155 308
155 569
156 977
156 374
156 1284
156 607
156 265
156 838
156 994
156 1210
156 1222
156 1202
156 1219
156 509
156 620
156 611
156 505
156 991
156 608
156 836
156 853
156 831
156 520
157 247
157 1023
157 260
157 1369
157 1001
157 1654
157 208
157 245
157 1327
157 1379
157 1382
157 1921
157 1992
158 860
158 708
158 703
158 1196
158 701
158 715
158 683
158 751
158 252
158 871
158 305
158 432
158 851
158 858
158 865
158 1182
158 1183
158 1185
158 859
158 723
158 699
158 872
159 1824
159 474
159 742
159 453
159 915
159 460
159 1200
159 918
159 1495
159 1792
159 1923
160 730
160 249
160 421
160 659
160 901
160 1158
160 908
160 567
160 556
160 935
160 1056
160 1721
161 602
161 826
161 839
161 1209
161 603
161 1203
161 1220
161 841
161 840
161 1218
161 1223
161 845
161 171
161 834
161 847
161 1204
161 1207
161 1214
161 1224
161 863
161 1215
161 1217
161 1221
161 849
161 609
161 356
161 1216
161 842
161 844
161 270
161 835
161 1211
161 837
161 518
161 830
161 513
161 825
161 827
161 869
161 848
162 441
162 437
162 858
162 1181
162 679
162 719
162 930
162 699
162 442
163 1145
163 292
163 1982
163 1325
163 889
163 632
163 196
163 895
163 1115
163 175
163 1362
163 1500
163 1806
164 869
164 1190
164 243
164 862
164 866
164 886
164 1215
164 837
164 1207
164 361
165 599
165 187
165 426
165 280
165 283
165 291
165 438
165 274
165 268
165 1002
165 299
165 1522
165 1934
165 1996
165 1003
165 811
166 344
166 989
166 1225
166 192
166 499
166 321
166 309
166 498
166 306
166 490
166 1096
166 320
166 1959
166 947
166 1248
166 332
166 985
166 494
166 307
166 980
166 493
166 1080
167 905
167 726
167 1026
167 670
167 1031
167 1061
167 744
167 296
167 939
167 658
167 229
167 1488
167 1575
167 1783
167 662
167 554
167 190
167 674
168 964
168 244
168 971
168 955
168 958
168 950
168 951
168 973
168 214
168 232
169 714
169 704
169 873
169 311
169 483
169 874
169 481
169 995
169 711
169 705
169 364
169 855
169 576
169 585
169 856
169 1908
169 870
169 179
169 495
170 203
170 1126
170 819
170 1131
170 250
170 1112
170 1630
170 234
170 1514
170 1541
170 1552
171 834
171 1218
171 1223
171 1209
171 513
171 841
171 826
171 839
171 830
171 603
171 215
171 235
171 1798
172 1133
172 1266
172 333
172 1148
172 517
172 1279
172 1289
172 1264
172 1244
172 216
172 1137
172 226
172 284
172 347
172 600
172 614
172 630
172 957
172 1257
172 386
172 1140
172 1250
172 1184
172 405
172 1177
172 1179
172 629
172 389
172 378
172 512
172 246
172 259
172 375
172 500
172 621
172 1226
172 610
172 612
172 1100
172 1291
172 728
172 959
172 1273
172 952
172 402
172 349
172 604
173 514
173 846
173 522
173 706
173 606
173 584
173 829
173 616
173 476
173 270
173 518
173 223
173 605
173 1324
173 1885
173 849
173 1216
173 587
173 844
173 833
173 582
173 586
173 1206
173 1208
173 491
173 845
174 676
174 781
174 759
174 595
174 764
174 1175
174 580
174 696
174 577
174 1181
174 780
174 682
174 777
175 1544
175 285
175 1844
175 196
175 895
175 278
175 1004
175 1479
175 1546
175 1568
175 1806
176 690
176 675
176 295
176 227
176 755
176 220
176 972
176 760
176 691
176 650
176 687
176 1916
176 540
176 663
177 750
177 539
177 798
177 760
177 540
177 783
177 774
177 1090
177 761
177 675
177 775
177 1971
177 532
177 687
177 688
177 797
177 1077
177 771
178 459
178 417
178 463
178 1740
178 466
178 1415
178 455
178 729
178 677
178 1168
178 748
178 469
178 409
178 418
178 457
178 1173
178 1152
178 468
178 415
178 778
179 495
179 308
179 304
179 240
179 481
179 712
179 477
179 483
179 489
179 716
179 704
179 314
179 311
179 714
180 1224
180 847
180 825
180 841
180 837
180 832
180 839
180 835
180 1223
180 1215
180 826
180 906
180 915
180 1220
180 1217
180 603
180 1221
180 609
180 1200
181 958
181 971
181 966
181 412
181 746
181 951
181 738
181 418
181 415
181 422
181 954
181 974
181 967
181 964
181 1740
182 758
182 945
182 679
182 857
182 221
182 1183
182 446
182 719
182 872
182 751
182 762
182 926
182 948
182 1794
183 1287
183 506
183 622
183 1252
183 1277
183 624
183 617
183 1265
183 1255
183 516
183 1263
183 207
183 1235
183 1253
183 1262
183 1282
183 1582
183 1293
183 1297
183 1288
183 1292
183 623
183 1283
183 1274
183 1267
183 1271
183 1268
183 194
183 519
183 521
184 944
184 217
184 937
184 213
184 934
184 928
184 447
184 432
184 435
184 790
184 225
184 1370
184 1854
185 930
185 928
185 221
185 446
185 441
185 447
185 945
185 443
185 251
185 435
185 1854
186 574
186 272
186 566
186 737
186 551
186 1160
186 414
186 552
186 938
186 932
186 191
186 288
186 943
186 1389
186 1624
186 1764
186 1790
187 274
187 268
187 291
187 599
187 280
187 438
187 283
187 806
187 258
187 1318
187 1334
187 1679
187 1934
187 1996
188 371
188 307
188 1922
188 1238
188 980
188 260
188 208
188 218
188 290
188 1369
188 1637
188 933
188 946
188 332
188 309
188 192
189 550
189 1050
189 1066
189 228
189 524
189 553
189 570
189 569
189 1211
189 482
189 1054
189 1529
189 1559
189 1639
190 662
190 1031
190 670
190 1045
190 1061
190 822
190 1026
190 932
190 552
190 939
190 815
190 193
190 296
190 1027
190 1038
190 255
190 565
190 1044
190 551
190 658
190 1034
190 726
190 905
191 574
191 566
191 737
191 272
191 551
191 1160
191 1410
191 1389
191 1624
191 1762
191 1764
192 980
192 307
192 309
192 989
192 490
192 1225
192 494
192 332
192 321
192 344
192 371
192 498
192 499
192 947
192 1922
192 1238
192 320
192 493
192 306
192 365
192 1080
192 946
193 1611
193 1038
193 296
193 1481
193 815
193 1721
193 800
193 1031
193 1438
193 1477
193 1527
193 1573
193 1749
193 1894
194 623
194 1292
194 1671
194 1281
194 506
194 450
194 516
194 471
194 619
194 1287
194 1186
194 1280
194 1277
194 472
194 1255
194 1270
194 467
194 456
194 207
194 504
194 510
194 620
194 622
194 624
194 879
194 850
194 1283
194 1274
194 979
195 600
195 284
195 241
195 1510
195 226
195 333
195 347
195 1264
195 1326
195 1456
195 1476
195 1746
195 1952
196 895
196 278
196 285
196 294
196 1115
196 1325
196 1145
196 1362
196 1500
196 1544
196 1844
196 1982
197 953
197 968
197 967
197 239
197 261
197 954
197 965
197 963
197 693
197 464
197 242
197 244
197 454
197 973
197 462
197 795
197 1173
197 799
197 956
198 259
198 271
198 204
198 226
198 1264
198 246
198 1291
198 1311
198 1319
198 1326
198 1476
198 1588
198 1713
198 1988
199 1236
199 1178
199 1235
199 994
199 1252
199 979
199 1231
199 1262
199 1230
199 1245
199 1462
199 1741
200 972
200 1646
200 950
200 227
200 220
200 244
201 1123
201 381
201 1130
201 396
201 1117
201 646
201 634
201 974
201 645
201 644
201 1491
201 1916
202 1529
202 1050
202 235
202 606
202 524
202 513
202 846
202 616
202 1344
202 1388
202 1709
202 1772
203 250
203 1126
203 819
203 234
203 1131
203 1112
203 258
203 1514
203 1552
203 1630
203 1779
204 1291
204 259
204 1264
204 1272
204 517
204 246
204 1273
204 1177
204 610
204 224
204 1319
204 1643
204 1713
204 1988
204 959
204 226
204 604
204 1133
204 1137
205 1272
205 1261
205 961
205 959
205 224
205 1278
205 287
205 405
205 743
205 1273
205 1177
205 1643
205 1769
205 389
205 1291
205 621
206 267
206 955
206 969
206 1400
206 232
206 1574
206 970
206 1161
206 960
206 412
206 1569
206 1597
206 1743
206 1999
207 516
207 1287
207 506
207 624
207 1293
207 1271
207 1255
207 1296
207 1267
207 519
207 1186
207 1187
207 1197
207 1252
207 1288
207 1268
207 1258
207 1297
207 1292
207 623
208 1637
208 269
208 290
208 1922
208 1369
208 1682
208 1705
208 1758
208 1921
208 1959
208 1992
209 286
209 1071
209 720
209 569
209 587
209 1208
209 570
209 482
209 861
209 243
209 231
209 553
209 874
209 1908
209 849
209 1214
209 228
209 833
209 848
209 582
209 584
209 476
209 518
209 586
209 1206
209 704
209 873
209 1066
209 311
210 702
210 1309
210 713
210 276
210 721
210 298
210 1794
210 707
210 1185
210 1431
210 1781
210 1821
210 1987
211 263
211 264
211 799
211 527
211 663
211 650
211 261
211 1085
211 1165
211 788
211 1480
211 1667
211 1918
212 262
212 215
212 1798
212 265
212 1205
212 827
212 607
212 831
212 503
212 1204
212 1202
212 1828
212 1937
212 1948
213 934
213 217
213 937
213 944
213 225
213 925
213 1471
213 790
213 942
213 301
213 1370
213 1402
213 1854
214 950
214 242
214 244
214 1646
214 968
214 263
214 1375
214 1597
214 1770
214 1918
215 1204
215 834
215 262
215 827
215 840
215 265
215 1798
215 1217
215 235
215 1750
215 1828
215 1937
216 614
216 347
216 333
216 1148
216 630
216 375
216 1179
216 600
216 1266
216 226
216 1279
216 241
216 284
216 1100
216 1124
216 1378
216 1510
216 610
216 1289
216 728
216 402
216 349
216 604
216 1264
216 1257
216 1140
216 1133
216 517
216 1137
216 629
216 952
216 1244
216 386
216 500
216 1226
216 1118
217 944
217 934
217 937
217 225
217 865
217 447
217 871
217 251
217 1196
218 1504
218 1354
218 1471
218 290
218 350
218 1904
218 371
218 1015
218 1312
218 1380
218 1402
218 1620
219 451
219 896
219 853
219 1254
219 1219
219 868
219 608
219 1201
219 854
219 611
219 831
219 917
219 273
219 470
219 912
219 977
219 1202
219 1205
219 1222
219 1290
219 1299
219 1284
219 914
219 850
219 1200
219 1213
219 1281
219 1270
219 828
219 1274
219 836
219 838
219 827
219 510
219 879
219 450
219 505
219 452
219 619
219 504
219 1285
219 372
219 374
219 979
219 618
219 607
219 620
219 1280
220 650
220 295
220 755
220 972
220 663
220 690
220 1659
220 1804
221 446
221 945
221 758
221 930
221 679
221 936
221 926
221 948
222 1762
222 1488
222 744
222 745
222 905
222 1337
222 1575
222 1580
222 1688
222 1851
222 1895
223 522
223 846
223 491
223 1074
223 706
223 476
223 514
223 586
223 1707
223 1840
223 1885
223 1915
224 1643
224 1272
224 961
224 1291
224 287
224 959
224 1261
224 1319
224 1713
225 865
225 934
225 254
225 944
225 937
225 790
225 544
225 723
226 1264
226 1148
226 600
226 1133
226 517
226 259
226 333
226 246
226 1137
226 241
226 271
226 640
226 1100
226 1476
226 389
226 1244
226 630
226 500
226 610
226 614
226 1289
226 1291
226 1273
226 347
226 604
226 1266
226 1279
226 1257
226 284
226 957
227 691
227 972
227 690
227 675
227 956
227 238
227 760
227 795
227 788
227 965
227 973
228 1066
228 553
228 569
228 524
228 550
228 1071
228 833
228 570
228 1211
228 849
228 582
228 482
228 1050
228 1214
228 1216
228 1220
228 848
228 584
228 476
228 518
228 586
228 720
228 830
228 1206
228 1074
228 1208
228 286
228 587
228 861
228 616
229 1488
229 1575
229 296
229 905
229 1783
229 726
229 744
229 1026
229 554
229 1308
229 1337
229 1424
229 1580
229 1688
230 824
230 1043
230 931
230 816
230 949
230 802
230 935
230 1039
230 1027
230 943
230 800
230 249
230 940
230 1047
230 1790
231 1908
231 861
231 286
231 243
231 570
231 874
231 862
231 856
231 553
231 557
231 561
231 564
231 906
231 1590
232 960
232 962
232 955
232 969
232 412
232 964
232 974
232 382
232 971
232 1519
233 305
233 497
233 316
233 996
233 322
233 543
233 723
233 318
233 865
233 480
233 708
233 254
233 302
233 310
234 253
234 1126
234 427
234 625
234 438
234 280
234 599
234 1131
234 1514
234 1944
235 513
235 834
235 1050
235 1750
235 1218
235 1388
235 1508
235 1937
236 1410
236 1058
236 923
236 272
236 737
236 566
236 414
236 1160
236 413
236 1832
236 1859
237 747
237 1157
237 656
237 1153
237 1877
237 401
237 739
237 1155
237 419
237 1154
237 408
237 740
237 1447
237 1551
237 1686
238 691
238 778
238 956
238 457
238 468
238 463
238 965
238 677
238 455
238 760
238 795
238 675
238 239
238 973
238 454
238 951
238 954
239 454
239 965
239 464
239 963
239 462
239 693
239 956
239 1173
239 795
239 677
239 468
239 953
239 954
239 967
239 455
239 457
239 756
239 261
239 799
239 691
239 778
239 463
239 973
239 1085
239 968
240 308
240 495
240 477
240 304
240 489
240 481
240 712
240 314
240 1812
240 1840
241 1476
241 1100
241 600
241 284
241 1510
241 271
241 1326
241 1456
241 1730
241 1746
241 1819
241 1952
241 1953
242 968
242 244
242 953
242 950
242 967
242 261
242 954
242 973
242 263
242 1646
242 1918
243 874
243 286
243 873
243 720
243 862
243 1208
243 855
243 856
243 1908
243 587
243 1071
243 861
244 968
244 950
244 953
244 967
244 973
244 954
244 958
244 964
244 971
245 1605
245 1506
245 1323
245 1449
245 1023
245 1014
245 369
245 1332
245 1546
245 1568
245 1724
246 957
246 517
246 1137
246 1273
246 1133
246 259
246 1162
246 1244
246 1279
246 1148
246 1264
246 282
246 640
246 1272
246 1614
246 610
246 1100
246 1289
246 1291
246 728
246 970
246 604
246 1266
246 287
246 1257
246 333
246 1140
246 405
246 959
246 629
246 389
246 378
246 743
246 500
247 1654
247 1001
247 260
247 1023
247 290
247 1379
247 1382
247 1401
247 1584
247 1682
247 1771
247 1992
248 929
248 925
248 942
248 301
248 350
248 1904
248 787
248 947
248 275
248 946
248 329
248 1370
248 1015
249 1721
249 816
249 730
249 1039
249 823
249 659
249 1158
249 824
249 1043
249 1731
250 819
250 811
250 1126
250 1131
250 625
250 1112
250 438
250 291
250 258
250 294
250 1552
251 936
251 447
251 937
251 944
251 934
251 446
251 276
251 928
251 945
251 1402
251 1854
252 715
252 1182
252 851
252 708
252 305
252 683
252 860
252 682
252 1094
252 526
252 543
252 1082
253 427
253 812
253 281
253 1048
253 256
253 1119
253 625
253 385
253 280
253 438
253 599
253 632
253 283
254 475
254 310
254 1720
254 479
254 354
254 320
254 1450
254 485
254 996
255 935
255 822
255 1034
255 565
255 556
255 1044
255 949
255 932
255 1053
255 1056
255 659
255 730
255 1027
255 1158
255 1061
255 674
255 658
255 913
255 662
255 1031
255 941
255 670
255 938
256 385
256 292
256 632
256 889
256 1145
256 1131
256 1119
256 819
256 1126
256 625
256 281
256 387
256 390
256 1108
256 1142
256 1115
257 749
257 1156
257 733
257 732
257 404
257 420
257 423
257 401
257 736
257 739
257 742
257 1359
257 1447
257 1808
257 1824
257 666
257 1152
257 462
258 1552
258 1934
258 291
258 274
258 1318
258 266
258 1514
258 1742
258 1779
259 957
259 517
259 1264
259 271
259 1133
259 1148
259 282
259 640
259 1100
259 1476
259 1614
259 600
259 1273
259 1137
260 1001
260 1238
260 933
260 1009
260 1015
260 927
260 1023
260 1354
260 1504
260 1654
260 371
260 365
260 1904
260 1008
260 350
260 1012
261 693
261 799
261 795
261 963
261 953
261 527
261 965
261 464
261 968
261 956
261 263
261 663
261 973
261 788
261 1085
261 264
261 954
261 756
261 454
261 972
261 967
262 265
262 607
262 503
262 827
262 831
262 1204
262 1205
262 1202
262 1798
262 1555
262 1618
262 1828
262 1937
263 1646
263 650
263 950
263 799
263 1918
264 799
264 1156
264 963
264 1085
264 693
264 464
264 756
264 1165
264 423
264 795
264 1359
264 763
264 1086
264 527
264 678
264 663
264 1083
264 788
264 462
265 509
265 607
265 374
265 1210
265 977
265 827
265 1202
265 1222
265 1204
265 838
265 831
265 863
266 1742
266 1386
266 1912
266 1934
266 1318
266 1552
266 1536
266 1377
266 1451
266 1452
267 970
267 969
267 1161
267 378
267 1162
267 743
267 735
267 1184
267 1400
267 1519
267 1574
267 1597
267 1743
267 1981
267 1999
268 274
268 299
268 1002
268 291
268 1418
268 426
268 1318
268 1334
268 1522
268 1679
268 1742
268 1934
268 1996
269 1637
269 1959
269 1922
269 1369
269 1921
269 1705
269 290
269 1524
269 1703
269 1758
270 844
270 605
270 829
270 845
270 514
270 518
270 584
270 1216
270 616
270 606
270 1206
270 352
270 1324
270 846
270 1209
270 848
270 476
270 720
270 522
270 1208
270 513
270 706
270 1203
270 833
270 582
270 849
270 1214
270 356
270 602
270 1207
270 1220
271 1476
271 1100
271 640
271 1311
271 1343
271 1346
271 1588
271 1614
271 1805
272 737
272 1160
272 566
272 414
272 938
272 574
272 941
272 923
272 913
272 551
272 1410
272 939
272 565
272 932
272 1053
272 745
272 552
273 1290
273 912
273 1299
273 451
273 470
273 917
273 1254
273 853
273 854
273 896
273 1270
273 503
273 1200
273 1948
273 1201
273 1205
273 831
273 868
273 828
273 372
273 620
273 611
273 1222
273 608
273 1202
273 1285
273 1219
273 1274
273 1276
274 291
274 299
274 1002
274 1934
274 426
274 1318
274 1334
274 1418
274 1679
274 1742
274 1996
275 1904
275 350
275 1015
275 1009
275 929
275 946
275 1017
275 933
275 1008
275 1000
275 1020
275 1354
275 1370
275 1504
275 1619
276 936
276 298
276 721
276 859
276 702
276 758
276 446
276 945
276 1431
276 1794
276 1183
277 369
277 493
277 1248
277 332
277 348
277 1225
277 549
277 499
277 330
277 1323
277 1352
277 1369
277 1449
277 1506
277 1593
277 1605
277 1921
277 1959
278 895
278 1115
278 294
278 883
278 1010
278 811
278 889
278 1003
278 1145
278 285
278 1544
279 818
279 803
279 1931
279 440
279 899
279 1048
279 448
279 594
279 806
279 812
279 427
279 431
279 439
279 805
279 1029
279 1453
279 1623
279 1631
279 1701
279 1843
279 1848
280 599
280 438
280 283
280 281
280 625
280 428
280 1048
280 811
280 812
280 426
280 427
280 434
280 806
280 1003
280 899
280 588
280 1131
280 1126
280 819
281 438
281 283
281 625
281 599
281 428
281 811
281 1131
281 1126
281 812
281 1048
281 385
281 427
281 434
281 588
281 806
281 819
281 899
281 883
281 426
281 889
281 1010
281 1003
282 1162
282 957
282 743
282 1614
282 970
282 961
282 1272
282 287
282 1643
282 1727
282 1805
282 1835
282 1981
283 438
283 599
283 625
283 428
283 811
283 426
283 1048
283 1003
283 427
283 434
283 806
283 812
283 883
283 1018
283 1126
283 588
283 1010
283 1131
283 899
283 819
284 347
284 600
284 333
284 1378
284 1510
284 1289
284 402
284 349
284 1503
284 1652
284 1952
284 515
284 1264
285 1544
285 895
285 294
285 1115
285 1479
285 1536
285 1844
286 1071
286 570
286 861
286 720
286 569
286 482
286 1208
286 587
286 553
286 873
286 874
286 1908
286 1214
286 586
286 1206
286 704
286 833
286 582
286 1066
286 311
287 405
287 743
287 961
287 1272
287 959
287 389
287 1273
287 1257
287 378
287 500
287 1137
287 734
287 970
287 1261
287 1244
287 1184
287 621
287 610
287 1177
287 735
287 1278
287 728
287 1161
287 604
287 1266
287 1279
287 1162
287 1140
287 957
287 1133
287 517
287 512
287 1264
288 1624
288 943
288 1790
288 931
288 574
288 1027
288 940
288 551
288 949
288 1043
288 1389
288 1558
288 1764
289 1158
289 659
289 668
289 730
289 1783
289 554
289 674
289 421
289 1167
289 901
289 657
289 1164
289 1721
290 1637
290 1922
290 307
290 371
290 1654
290 1705
290 1758
290 1992
291 1002
291 811
291 299
291 426
291 1552
291 1742
291 1934
292 385
292 1145
292 632
292 889
292 433
292 1010
292 588
292 1119
292 1115
292 1131
292 390
292 1108
292 1142
293 1649
293 672
293 745
293 904
293 1164
293 554
293 744
293 658
293 571
293 1065
293 726
293 297
294 895
294 1115
294 1112
294 811
294 1552
294 1954
295 755
295 687
295 663
295 1086
295 754
295 540
295 678
295 788
295 763
295 650
295 1667
295 675
295 527
295 775
296 1031
296 670
296 905
296 1026
296 1045
296 1061
296 662
296 1337
296 1438
296 1488
296 1575
296 1611
297 1058
297 1983
297 407
297 672
297 1859
297 1068
297 725
297 413
297 1649
297 1059
297 671
297 1314
297 1357
297 1387
297 1564
297 1774
297 1832
298 721
298 859
298 701
298 1183
298 703
298 1185
298 1196
298 871
298 702
298 713
298 723
298 872
298 936
298 699
298 751
299 1002
299 1522
299 426
299 1003
299 1418
299 1513
299 1553
299 1963
300 324
300 319
300 488
300 986
300 312
300 478
300 314
300 317
300 358
300 304
300 496
300 351
300 484
300 1812
300 1955
301 942
301 925
301 494
301 947
301 929
301 354
301 1471
301 985
301 946
301 1080
301 490
301 787
301 479
301 980
301 485
301 350
301 329
301 989
301 309
301 498
302 318
302 480
302 313
302 317
302 322
302 484
302 315
302 717
302 478
302 496
302 986
302 1368
302 1423
303 1450
303 367
303 373
303 984
303 996
303 310
303 999
303 316
303 322
303 497
303 976
303 1227
303 360
303 480
303 484
303 1720
304 495
304 314
304 716
304 319
304 308
304 477
304 478
304 705
304 486
304 324
304 489
305 708
305 723
305 865
305 715
305 497
305 543
305 703
305 1185
305 526
305 316
306 320
306 498
306 321
306 479
306 989
306 490
306 309
306 354
306 344
306 485
306 475
306 985
306 1096
306 1720
306 499
306 492
306 494
306 366
306 1080
307 980
307 371
307 309
307 490
307 494
307 989
307 1922
307 332
307 1369
307 1637
307 1225
307 1238
307 344
307 946
307 321
307 947
307 498
308 495
308 481
308 712
308 477
308 489
308 491
308 1840
308 483
309 490
309 989
309 494
309 498
309 321
309 980
309 947
309 320
309 344
309 479
309 1471
309 946
309 1080
309 499
309 1225
309 354
309 985
309 371
310 1450
310 322
310 1720
310 480
310 996
310 475
310 373
310 984
310 484
310 1423
311 483
311 704
311 711
311 482
311 481
311 587
311 714
311 873
311 712
311 861
311 874
312 864
312 496
312 488
312 358
312 986
312 486
312 314
312 478
312 319
312 324
312 700
312 355
312 315
312 709
312 710
312 717
312 975
313 318
313 484
313 317
313 480
313 717
313 322
313 315
313 478
313 319
313 496
313 488
313 1368
313 1423
314 319
314 478
314 495
314 716
314 486
314 709
314 496
314 488
314 700
314 864
314 324
314 477
314 705
314 717
315 717
315 496
315 478
315 709
315 318
315 722
315 317
315 358
315 864
315 710
315 707
315 713
316 996
316 497
316 543
316 373
316 981
316 353
316 999
316 526
316 1450
316 322
316 535
316 1535
317 480
317 318
317 986
317 322
317 484
317 488
317 487
317 478
317 358
317 360
317 717
318 480
318 322
318 717
318 484
318 478
318 497
318 496
318 1423
319 488
319 324
319 478
319 986
319 496
319 495
319 864
319 358
319 477
319 1812
320 479
320 498
320 354
320 989
320 485
320 321
320 985
320 475
320 490
320 344
320 1471
320 1720
320 499
320 492
320 494
320 1096
320 1080
321 498
321 989
321 490
321 494
321 479
321 344
321 1471
321 1720
321 1959
321 980
321 354
322 480
322 484
322 497
322 996
323 992
323 1096
323 366
323 325
323 330
323 499
323 1079
323 796
323 344
323 525
323 492
323 982
323 976
323 1237
323 1243
323 1829
323 1080
323 334
323 1248
323 1225
323 985
324 488
324 986
324 355
324 358
324 478
324 988
324 496
324 351
324 993
325 1079
325 992
325 492
325 796
325 334
325 525
325 1080
325 985
325 1084
325 366
325 1096
325 329
325 330
325 485
325 499
325 537
325 541
325 791
325 1829
325 344
325 787
326 337
326 341
326 368
326 336
326 351
326 360
326 343
326 345
326 339
326 993
326 1229
326 487
327 1232
327 1240
327 1234
327 343
327 1227
327 1243
327 1237
327 368
327 337
327 982
327 999
327 353
327 341
327 1708
328 1174
328 636
328 382
328 1189
328 628
328 1120
328 1180
328 1199
328 1129
328 1105
328 386
328 1163
328 634
328 1117
328 1123
328 1191
328 952
328 512
328 1184
328 1118
328 1179
328 375
328 731
329 537
329 787
329 492
329 1080
329 942
329 1079
329 790
329 985
329 1084
329 929
329 925
329 485
330 1248
330 1096
330 499
330 369
330 1829
330 992
330 791
330 1225
330 344
330 1352
330 1593
330 1708
330 493
331 1249
331 1228
331 601
331 1652
331 338
331 515
331 1286
331 615
331 1378
331 1191
331 1245
331 346
331 1467
331 1503
331 1690
331 1952
332 493
332 1225
332 348
332 365
332 549
332 980
332 927
332 369
332 1369
332 371
332 989
332 344
332 1023
332 1248
332 933
332 946
332 499
332 1238
333 600
333 347
333 1289
333 1133
333 1264
333 1266
333 604
333 610
333 517
333 1510
333 957
333 959
333 1148
333 1137
333 389
333 402
333 1244
333 1257
333 386
333 375
333 630
333 1250
333 500
333 621
333 612
333 1177
333 614
333 1179
333 1291
333 728
333 1273
333 349
333 1279
333 1226
333 1140
334 525
334 796
334 1084
334 541
334 1079
334 992
334 982
334 1237
334 492
334 544
334 366
334 528
334 784
334 790
334 1234
334 485
335 997
335 1239
335 1242
335 1965
335 1241
335 987
335 983
335 978
335 342
335 998
335 1371
335 1966
335 993
335 1233
335 1246
335 1247
336 345
336 339
336 1371
336 1229
336 351
336 1965
336 342
336 530
336 343
336 341
336 975
336 1233
336 1241
337 341
337 343
337 368
337 1240
337 1232
337 1229
337 360
337 345
337 1227
337 999
337 339
337 1468
338 1286
338 615
338 515
338 501
338 508
338 502
338 1256
338 1295
338 1269
338 523
338 519
338 1503
338 507
338 601
338 1378
338 1652
339 345
339 1229
339 1371
339 342
339 1241
339 1233
339 341
339 343
339 1965
339 1247
339 1468
339 1486
339 1793
339 1919
340 612
340 1250
340 1226
340 386
340 621
340 402
340 349
340 1269
340 500
340 1289
340 613
340 1171
340 1198
340 1295
340 1298
340 610
340 731
340 1140
340 1261
340 405
340 1278
340 959
340 1137
340 389
340 523
340 512
340 1266
340 1244
340 1257
340 630
340 735
340 1179
340 508
340 728
340 501
340 1163
340 734
340 1273
340 604
340 1279
341 343
341 368
341 1240
341 1229
341 1232
341 345
341 360
341 1468
341 1486
341 1919
342 1371
342 1233
342 1241
342 1247
342 1239
342 345
342 1242
342 1965
342 1229
342 1246
342 1468
342 1793
343 1232
343 368
343 1240
343 1229
343 345
343 353
343 1468
344 499
344 1225
344 1096
344 989
344 498
344 1080
344 1248
344 366
344 947
344 493
344 985
344 490
344 492
344 494
344 980
345 1229
345 1371
345 1233
345 530
345 1241
345 1468
345 1486
345 1793
345 1919
346 1228
346 1245
346 1249
346 1178
346 1231
346 1230
346 1197
346 1235
346 1194
346 645
346 1252
346 1187
346 1236
347 600
347 1289
347 349
347 402
347 1179
347 614
347 1266
347 630
347 1378
347 1510
347 1652
347 604
347 1279
347 1226
347 610
347 612
347 1140
347 1133
347 517
347 1148
347 1137
347 389
347 1264
347 1244
347 1257
347 386
347 375
347 1250
347 500
347 515
348 549
348 493
348 369
348 365
348 1248
348 927
348 1225
348 791
348 1012
348 1017
348 1023
348 1449
348 933
349 402
349 1226
349 1289
349 612
349 1250
349 386
349 1179
349 1266
349 1140
349 500
349 501
349 515
349 1189
349 1269
349 1273
349 389
349 512
349 1264
349 1244
349 1257
349 628
349 630
349 1184
349 621
349 1133
349 1177
349 614
349 508
349 1295
349 734
349 604
349 375
349 1279
349 610
349 405
349 728
349 959
349 517
349 1148
349 1137
349 600
350 1904
350 1015
350 1009
350 946
350 1238
350 947
350 933
350 371
350 929
350 1001
350 1354
350 1504
350 365
350 980
351 363
351 975
351 355
351 487
351 986
351 530
351 358
351 488
351 360
352 605
352 356
352 1324
352 361
352 1207
352 987
352 1976
352 978
352 844
352 1966
353 981
353 999
353 1535
353 368
353 497
353 367
353 487
353 373
353 543
353 996
353 1240
353 360
353 363
353 1234
354 479
354 485
354 985
354 498
354 942
354 494
354 475
354 492
354 490
354 790
354 925
354 1471
354 989
354 1080
355 975
355 358
355 864
355 363
355 579
355 986
355 359
355 488
355 538
356 842
356 1207
356 1203
356 609
356 843
356 869
356 1976
356 1221
356 1215
356 602
356 362
356 863
356 357
356 361
356 520
356 605
356 847
356 1210
356 838
356 1214
356 840
356 844
356 1209
356 837
356 826
356 839
356 825
356 618
356 866
356 1220
356 991
356 1224
356 603
356 845
357 520
357 1976
357 509
357 1210
357 374
357 362
357 863
357 991
357 838
357 842
357 1324
357 1204
357 843
357 840
357 1203
358 496
358 864
358 986
358 488
358 975
358 487
358 363
358 478
358 710
359 579
359 581
359 576
359 870
359 995
359 852
359 714
359 867
359 700
359 364
359 486
359 585
360 487
360 368
360 367
360 999
360 981
360 986
360 363
360 484
361 362
361 892
361 866
361 843
361 991
361 886
361 1190
361 869
361 520
361 978
361 1966
361 1976
362 991
362 843
362 866
362 520
362 1976
362 505
362 842
362 838
362 886
362 892
362 914
362 1221
362 1210
362 461
362 863
362 869
362 374
362 618
362 609
363 975
363 487
363 530
363 981
363 986
363 779
363 1535
363 1094
363 538
364 585
364 995
364 855
364 990
364 983
364 576
364 870
364 714
364 581
364 988
364 370
364 579
364 987
364 873
365 927
365 549
365 933
365 1009
365 1238
365 946
365 1012
365 791
365 1000
365 1008
365 1017
365 1023
365 947
365 1015
365 493
365 1225
365 371
365 980
366 992
366 796
366 1096
366 982
366 525
366 1243
366 1237
366 1079
366 976
366 475
366 984
366 492
366 485
366 499
367 999
367 984
367 373
367 1450
367 1227
367 368
367 996
367 1240
367 981
367 976
368 1240
368 999
368 1227
368 981
368 1229
368 1232
369 493
369 1248
369 549
369 1225
369 1323
369 1352
369 1449
369 1506
369 1593
369 1605
369 499
370 988
370 990
370 998
370 993
370 997
370 983
370 585
370 995
370 1965
370 987
371 980
371 1238
371 946
371 947
371 494
371 1015
371 1922
371 490
371 989
371 1904
371 1009
371 927
371 933
372 608
372 868
372 1201
372 611
372 1219
372 452
372 854
372 896
372 828
372 914
372 618
372 917
372 473
372 504
372 505
372 510
372 1200
372 1212
372 1213
372 1202
372 894
372 885
372 456
372 863
372 1254
372 451
372 374
372 979
372 620
372 853
372 1284
372 991
372 912
372 1222
372 1290
372 850
372 843
372 977
372 832
372 1221
372 1210
372 836
372 1280
372 825
372 838
372 827
372 842
372 1205
372 831
372 470
372 461
372 879
372 450
373 996
373 1450
373 999
373 984
373 982
373 497
373 1237
373 796
373 976
373 981
373 1227
373 1234
373 1243
374 838
374 1210
374 1222
374 1202
374 977
374 836
374 611
374 1219
374 914
374 863
374 618
374 509
374 520
374 607
374 991
374 608
374 1213
374 896
374 843
374 1221
374 1201
374 827
374 840
374 842
374 1205
374 831
374 505
374 1204
374 1976
374 451
374 853
374 1284
374 868
375 614
375 630
375 1179
375 1118
375 1124
375 1140
375 952
375 628
375 1148
375 1279
375 629
375 380
375 1128
375 1189
375 1819
375 1289
375 382
375 1226
375 728
375 402
375 512
375 1266
375 1244
375 386
375 1129
375 1184
375 1120
375 1133
376 1139
376 1143
376 1114
376 1104
376 633
376 395
376 627
376 1101
376 626
376 398
376 1342
376 383
376 875
376 882
376 891
376 898
376 1444
376 1670
376 1875
377 1149
377 1125
377 1132
377 397
377 1134
377 631
377 384
377 394
377 642
377 1110
377 641
377 1113
377 1121
377 1146
377 1347
377 1936
377 1972
378 970
378 728
378 1161
378 743
378 1162
378 734
378 1184
378 405
378 512
378 1244
378 735
378 961
378 500
378 621
378 1120
378 1133
378 629
378 1279
378 1226
378 1272
378 1140
378 957
378 959
378 517
378 1148
378 1137
378 1273
378 952
378 389
378 1266
378 1257
378 386
378 630
378 1261
378 1129
379 1434
379 1102
379 639
379 646
379 1122
379 1813
379 643
379 1147
379 1130
379 396
379 644
379 647
379 393
379 637
379 1491
379 1613
380 1105
380 634
380 1117
380 1136
380 628
380 381
380 1124
380 1123
380 1118
380 1130
380 396
380 1413
380 1819
380 1961
381 1117
381 396
381 1130
381 1136
381 1105
381 646
381 639
381 645
381 1122
381 634
381 1123
382 636
382 1120
382 1129
382 1174
382 1184
382 512
382 952
382 735
382 1161
382 1118
382 960
382 962
382 1123
382 1163
382 734
382 1226
382 728
382 1189
382 386
382 628
382 630
382 1140
383 626
383 649
383 1342
383 1101
383 1143
383 635
383 1144
383 395
383 398
383 1139
383 627
383 1106
383 1111
383 1444
384 1110
384 1125
384 1146
384 394
384 641
384 631
384 1134
384 1149
384 1138
384 884
384 627
384 397
384 1422
384 1911
384 1936
385 632
385 588
385 889
385 1145
385 433
385 428
385 1010
385 1119
385 448
385 440
385 449
385 1108
385 1131
385 625
386 1226
386 612
386 1140
386 1179
386 402
386 728
386 1266
386 1250
386 621
386 1289
386 628
386 735
386 1120
386 1189
386 405
386 959
386 1148
386 1269
386 1137
386 1273
386 952
386 512
386 1257
386 630
386 1129
386 1184
386 500
386 1118
386 636
386 1133
386 508
386 389
386 501
386 1161
386 1174
386 1163
386 613
386 734
386 1244
386 604
386 1279
386 1171
386 610
386 614
387 1142
387 390
387 388
387 1541
387 399
387 1630
387 632
387 1119
387 1972
387 1108
387 1116
387 1807
387 1820
387 1944
388 1113
388 642
388 1972
388 1116
388 1109
388 1121
388 399
388 1142
388 1107
388 390
388 1127
388 1347
389 500
389 1257
389 1273
389 1137
389 959
389 621
389 405
389 1244
389 604
389 1266
389 610
389 517
389 728
389 743
389 1177
389 1272
389 1278
389 1279
389 1226
389 1162
389 612
389 735
389 1140
389 957
389 970
389 1148
389 961
389 600
389 402
389 512
389 1264
389 630
389 1261
389 1250
389 1184
389 1133
389 1179
389 1289
389 1291
389 1161
389 734
390 1142
390 399
390 1108
390 1119
390 632
390 1116
390 1109
390 598
390 449
391 638
391 1135
391 1103
391 1106
391 1141
391 1111
391 392
391 1526
391 648
391 635
391 393
391 647
391 1782
391 1914
391 1980
392 647
392 1135
392 648
392 638
392 1141
392 1111
392 1914
392 637
392 393
392 1526
392 1103
392 643
392 644
392 1106
392 1782
392 1980
393 648
393 638
393 1135
393 1106
393 647
393 1141
393 1526
393 1434
393 1102
393 1103
393 1492
393 1530
393 1613
393 1782
393 1813
393 1914
393 1978
393 1980
394 1146
394 1125
394 1149
394 1110
394 641
394 1134
394 631
394 397
394 1138
394 1132
394 1422
394 1911
394 1936
395 398
395 1104
395 627
395 1114
395 1139
395 633
395 1342
395 1101
395 649
395 1143
395 626
395 1144
396 1130
396 639
396 646
396 1122
396 1136
396 1117
396 645
396 1102
396 1105
396 644
396 1123
396 1147
396 1491
397 1132
397 1134
397 1149
397 1125
397 631
397 1658
397 1138
397 884
397 1110
397 641
397 642
397 880
397 893
397 1107
397 1347
398 627
398 1104
398 1114
398 1342
398 633
398 1101
398 1139
398 649
398 1144
398 626
398 1146
399 1142
399 1108
399 1116
399 1109
399 1119
399 598
399 632
399 449
399 1107
399 1113
399 1347
399 1972
400 1165
400 1426
400 410
400 423
400 654
400 420
400 660
400 1083
400 763
400 419
400 656
400 1359
400 1667
400 1877
401 739
401 420
401 749
401 404
401 423
401 1157
401 1156
401 732
401 733
401 1359
401 1165
401 742
401 1154
401 1447
401 1824
402 1250
402 1289
402 612
402 1226
402 1179
402 1266
402 621
402 500
402 501
402 515
402 1269
402 615
402 604
402 1279
402 610
402 614
402 405
402 1278
402 728
402 959
402 1148
402 1137
402 600
402 1273
402 523
402 1264
402 1189
402 1257
402 630
402 1140
402 1133
402 517
402 1177
402 1298
402 508
402 1295
402 613
402 1244
403 902
403 1159
403 1172
403 740
403 1166
403 1155
403 408
403 911
403 924
403 652
403 1862
403 900
403 1725
403 1923
403 1983
404 732
404 420
404 739
404 733
404 423
404 410
404 773
404 749
404 1156
404 419
404 742
404 1154
404 1157
404 1165
404 1426
404 666
405 621
405 743
405 1257
405 500
405 734
405 959
405 1273
405 1261
405 728
405 735
405 961
405 970
405 1272
405 1289
405 1161
405 604
405 1279
405 1171
405 1226
405 610
405 1162
405 612
405 1278
405 957
405 1137
405 512
405 1264
405 1266
405 1244
405 1140
405 1250
405 1184
405 1133
405 517
405 1177
406 661
406 424
406 416
406 725
406 1150
406 1167
406 657
406 1939
406 921
406 668
406 904
406 908
406 1800
406 1862
406 1983
407 1068
407 1065
407 413
407 741
407 1069
407 922
407 1051
407 671
407 672
407 571
407 1058
407 1164
407 901
407 904
407 920
407 572
407 1056
407 567
407 560
407 923
408 1155
408 740
408 652
408 1166
408 664
408 747
408 1172
408 651
408 1151
408 669
408 1862
408 656
408 655
408 665
408 673
409 729
409 748
409 736
409 1152
409 417
409 459
409 733
409 1415
409 1173
409 1168
409 460
409 474
409 742
409 1533
409 1808
409 1824
410 1426
410 419
410 420
410 1154
410 732
410 654
410 660
410 1165
410 1153
410 686
410 739
410 773
410 423
411 738
411 1199
411 731
411 727
411 1169
411 966
411 974
411 1258
411 418
411 1170
411 1163
411 1187
411 1180
411 1275
412 962
412 966
412 971
412 960
412 958
412 974
412 727
412 738
412 969
412 1169
412 955
412 1574
412 964
413 1065
413 923
413 1058
413 571
413 922
413 1068
413 1069
413 941
413 560
413 1056
413 414
413 572
413 672
413 1063
413 938
413 741
413 556
413 1053
413 913
414 938
414 1160
414 941
414 737
414 913
414 923
414 1053
414 566
414 571
414 565
414 574
414 1058
414 744
414 1056
414 939
414 552
414 932
414 745
414 1044
414 551
414 1026
414 658
414 1034
414 822
414 1065
415 1415
415 1168
415 418
415 746
415 1740
415 422
415 748
415 459
415 1173
415 466
415 1943
415 1533
415 738
416 424
416 661
416 1150
416 1167
416 1151
416 657
416 667
416 1939
416 908
416 921
416 725
416 652
416 664
416 668
416 1166
416 1172
416 1800
417 459
417 1152
417 729
417 455
417 463
417 677
417 748
417 468
417 457
417 778
417 466
417 469
417 736
417 1415
417 1740
417 1173
417 462
418 1740
418 1415
418 1168
418 746
418 459
418 738
418 466
418 966
418 422
418 463
419 1153
419 1154
419 1426
419 660
419 1159
419 653
419 686
419 739
419 420
419 656
419 747
419 1157
420 423
420 739
420 732
420 1156
420 1165
420 749
420 733
420 1154
420 1157
420 1359
420 1426
421 908
421 1167
421 901
421 741
421 668
421 661
421 920
421 659
421 667
421 730
421 921
421 916
421 1164
422 746
422 1943
422 738
422 966
422 1169
422 1168
422 1170
422 1415
422 1533
422 1574
422 1657
423 1165
423 1156
423 1359
423 749
423 732
423 739
423 1157
423 1877
423 654
423 1083
424 725
424 1150
424 661
424 1939
424 1862
424 921
424 1151
424 1800
424 1172
424 1167
424 657
424 1314
424 1983
425 436
425 445
425 1723
425 444
425 430
425 1744
425 442
425 429
425 443
425 435
425 1483
425 596
425 1383
426 1003
426 434
426 883
426 1018
426 428
426 599
426 1010
426 438
426 899
426 1002
426 1522
426 811
426 588
426 625
427 812
427 1048
427 806
427 599
427 438
427 428
427 899
427 818
427 821
427 1623
428 588
428 434
428 899
428 1010
428 438
428 599
428 1048
428 440
428 433
428 448
428 625
428 812
428 883
428 1003
428 1018
428 811
429 430
429 431
429 1701
429 436
429 445
429 1744
429 435
429 443
429 444
429 1425
429 1843
429 1313
429 1557
430 431
430 1701
430 436
430 445
430 1744
430 439
430 435
430 596
430 444
430 575
430 1557
431 1701
431 1843
431 805
431 439
431 1744
431 1631
431 803
431 818
431 594
431 1557
432 860
432 858
432 441
432 437
432 699
432 871
432 1196
432 444
432 928
433 588
433 1010
433 448
433 440
433 1145
433 434
433 899
433 883
433 889
433 449
433 1004
433 1006
433 1007
433 1018
433 1931
434 1018
434 1003
434 883
434 588
434 1010
434 899
434 440
434 448
434 1007
434 1522
434 1931
434 438
434 599
435 443
435 444
435 442
435 436
435 928
435 441
435 437
435 445
435 1370
435 1557
436 445
436 444
436 442
436 443
436 1723
436 437
436 1383
437 441
437 442
437 858
437 444
437 930
437 928
437 860
437 443
437 1723
438 599
438 625
438 811
438 1126
438 1131
438 1048
438 806
438 812
438 1003
438 883
438 588
438 819
438 1010
439 575
439 594
439 449
439 1931
439 1006
439 598
439 448
439 818
439 440
439 1007
439 1022
439 1004
439 1019
439 1701
440 448
440 899
440 588
440 1931
440 818
440 1048
440 812
440 449
440 594
440 1006
440 1007
440 1018
441 858
441 930
441 442
441 928
441 699
441 443
441 444
442 443
442 444
442 928
442 445
442 1483
442 1723
443 444
443 928
443 445
443 930
443 1483
443 1557
444 928
444 445
444 1723
445 1723
445 1483
445 1744
445 597
445 1425
446 945
446 758
446 936
446 930
446 447
446 948
447 699
447 859
447 936
447 928
447 944
447 930
447 934
447 937
447 858
447 1196
447 758
447 871
448 588
448 899
448 1931
448 818
448 1048
448 449
448 594
448 1006
448 1007
448 1119
449 598
449 594
449 575
449 1108
449 1119
449 1004
449 1006
449 1019
450 1280
450 510
450 850
450 456
450 1281
450 504
450 1671
450 828
450 619
450 1254
450 894
450 854
450 465
450 467
450 471
450 879
450 885
450 1270
450 1219
450 1274
450 979
450 1212
450 917
450 853
450 1284
450 470
450 472
450 461
450 452
450 896
450 623
450 1201
450 451
450 620
450 611
450 505
450 868
450 912
450 1290
450 1292
450 608
450 1283
450 1285
451 853
451 1254
451 896
451 854
451 1290
451 868
451 917
451 828
451 1219
451 1201
451 608
451 470
451 912
451 1200
451 1299
451 611
451 879
451 505
451 1222
451 914
451 619
451 850
451 1281
451 1285
451 977
451 1274
451 979
451 836
451 1280
451 838
451 1284
451 1205
451 831
451 1213
451 1202
451 1270
451 452
451 456
451 504
451 618
451 510
451 620
452 473
452 1212
452 828
452 868
452 854
452 894
452 510
452 461
452 1201
452 608
452 504
452 505
452 832
452 885
452 886
452 1254
452 618
452 866
452 879
452 991
452 1222
452 914
452 850
452 843
452 1219
452 1221
452 836
452 917
452 1280
452 838
452 611
452 853
452 1284
452 831
452 470
452 1200
452 1213
452 1202
452 896
452 456
453 465
453 460
453 474
453 467
453 456
453 912
453 470
453 1270
453 917
453 1290
454 462
454 1173
454 464
454 963
454 965
454 677
454 468
454 693
454 463
454 455
454 736
454 795
454 973
454 778
454 457
454 954
454 967
454 956
454 953
455 677
455 457
455 468
455 778
455 463
455 462
455 1152
455 459
455 1173
455 771
455 773
455 691
455 688
455 464
455 666
455 963
455 965
455 956
456 465
456 894
456 467
456 1280
456 510
456 828
456 854
456 912
456 850
456 1270
456 460
456 469
456 471
456 474
456 1254
456 620
456 1671
456 879
456 868
456 1290
456 619
456 1292
456 623
456 1283
456 504
456 979
456 1212
456 917
456 470
456 472
456 1281
456 885
457 778
457 468
457 677
457 463
457 691
457 462
457 965
457 688
457 795
457 1173
457 539
457 675
457 464
457 666
457 963
457 1152
457 459
457 956
457 771
457 760
457 750
457 756
458 797
458 1971
458 1081
458 689
458 783
458 547
458 773
458 697
458 798
458 1077
458 688
458 772
458 686
459 463
459 1740
459 1415
459 729
459 748
459 466
459 1168
459 1173
459 677
459 469
459 462
459 1152
459 468
459 778
459 736
460 474
460 465
460 467
460 729
460 469
460 466
460 748
461 1212
461 885
461 879
461 505
461 886
461 504
461 510
461 894
461 866
461 473
461 892
461 1201
461 618
461 611
461 1671
461 868
461 991
461 914
461 608
461 850
461 854
461 843
461 1219
461 979
461 1280
461 838
461 1284
461 828
462 677
462 464
462 468
462 1173
462 963
462 965
462 693
462 463
462 736
462 778
462 1152
462 666
462 1156
462 956
462 1085
462 688
462 756
462 795
463 677
463 468
463 778
463 1173
463 1740
463 1415
463 1152
463 965
463 956
463 748
464 963
464 693
464 965
464 795
464 799
464 956
464 468
464 677
464 1173
464 954
464 967
464 527
464 953
464 691
464 756
464 1156
464 663
464 678
464 788
464 1085
464 666
465 467
465 894
465 474
465 471
465 469
465 470
465 912
465 854
466 1168
466 1415
466 1740
466 469
466 729
466 748
467 1270
467 472
467 912
467 1283
467 623
467 469
467 474
467 619
467 1281
467 471
467 1280
468 677
468 778
468 965
468 1152
468 1173
468 795
468 1085
468 666
468 963
468 956
468 771
468 691
468 693
468 675
468 688
468 756
469 471
469 623
469 474
470 917
470 854
470 1290
470 1200
470 1201
470 912
470 828
470 896
470 868
470 1299
470 608
470 1219
470 618
470 473
470 1212
470 1280
470 611
470 853
470 1205
470 1222
470 914
470 850
470 1213
470 1202
470 894
470 1270
470 836
470 1254
470 504
470 831
470 510
471 623
471 1671
471 894
471 1186
471 1197
471 885
472 1283
472 1270
472 1255
472 1267
472 624
472 1268
472 623
472 619
472 1263
472 1292
472 1281
472 1285
472 1274
472 1287
472 1276
472 1282
472 521
472 912
472 1277
472 506
472 620
472 1671
472 1297
473 1212
473 832
473 894
473 1201
473 618
473 917
473 886
473 854
473 914
473 866
473 915
473 510
473 505
473 868
473 1224
473 608
473 843
473 1219
473 1221
473 609
473 611
473 1200
473 1213
473 828
473 896
473 885
473 836
473 825
473 504
474 729
474 742
474 915
474 1824
475 479
475 485
475 1450
475 985
475 498
475 796
475 976
475 1720
476 586
476 616
476 846
476 833
476 584
476 582
476 849
476 706
476 514
476 522
476 491
476 524
476 606
476 1050
476 1074
476 1206
476 513
476 1071
476 569
476 1066
476 848
476 720
476 482
476 845
476 1208
476 550
476 1216
476 587
476 829
476 844
476 518
477 489
477 495
477 712
477 716
477 478
477 1368
477 1812
477 1840
478 717
478 496
478 488
478 709
478 864
478 986
478 707
478 716
479 498
479 485
479 985
479 490
479 989
479 494
479 1471
479 1720
479 492
479 942
479 1080
480 484
480 497
480 487
480 996
481 483
481 704
481 491
481 587
481 712
481 495
481 714
481 586
481 522
481 1074
481 706
481 482
482 569
482 570
482 587
482 861
482 1071
482 483
482 550
482 704
482 1054
482 1074
482 491
482 833
482 582
482 586
482 720
482 1206
482 1208
482 1066
482 553
483 704
483 712
483 711
483 587
483 489
483 495
483 714
483 1644
483 1074
483 491
484 986
484 487
484 1423
484 1612
484 1812
484 1955
484 1969
485 985
485 492
485 1080
485 796
485 1079
485 790
485 544
485 942
485 992
485 989
485 498
485 1084
486 700
486 705
486 864
486 709
486 716
486 710
486 496
486 852
486 714
486 718
486 722
486 724
487 981
487 986
487 497
487 488
487 999
487 975
488 986
488 496
488 864
488 975
489 712
489 1644
489 495
489 716
489 1368
489 1840
490 498
490 494
490 989
490 980
490 1471
490 1225
490 985
490 947
490 942
490 946
490 1080
491 1074
491 586
491 522
491 712
491 706
491 1644
491 616
491 833
491 846
491 582
491 584
491 1206
491 587
491 514
491 569
492 985
492 1079
492 1080
492 796
492 992
492 1084
492 790
492 537
492 541
492 544
492 787
492 525
492 942
492 499
492 1096
493 1248
493 1225
493 549
493 499
493 1369
493 1506
493 1605
493 927
494 498
494 947
494 989
494 980
494 946
494 925
494 942
494 1471
494 985
494 1225
494 1080
495 716
495 714
495 705
495 704
496 864
496 709
496 717
496 710
496 986
496 700
496 707
496 722
497 996
497 543
497 981
497 526
497 999
497 1450
497 1535
498 989
498 985
498 1471
498 499
498 947
498 942
498 1225
498 980
498 1080
499 1096
499 1225
499 1248
499 989
499 1080
499 1079
499 992
499 985
499 980
500 1257
500 621
500 1137
500 1273
500 1266
500 1244
500 604
500 959
500 610
500 1289
500 612
500 728
500 1177
500 1226
500 1278
500 630
500 1184
500 1162
500 1298
500 614
500 735
500 1291
500 970
500 1148
500 1161
500 961
500 600
500 734
500 1264
500 1279
500 1272
500 1140
500 1261
500 1250
500 957
500 1133
500 517
500 1179
500 952
500 512
500 743
501 508
501 1269
501 515
501 1295
501 523
501 1250
501 615
501 612
501 613
501 601
501 1191
501 1286
501 1256
501 519
501 1179
501 1189
501 1226
501 502
501 1289
502 1256
502 1286
502 519
502 1260
502 615
502 1295
502 523
502 508
502 1259
502 617
502 1815
502 507
502 1294
502 1503
502 1288
502 515
502 1269
503 1276
503 1299
503 1285
503 607
503 1274
503 521
503 1253
503 1948
503 1290
503 1263
503 1753
503 1828
504 510
504 1280
504 850
504 828
504 879
504 868
504 979
504 1254
504 505
504 1284
504 620
504 885
504 894
504 994
504 1212
504 1281
504 1671
504 1213
504 1202
504 1270
504 896
504 836
504 1201
504 991
504 914
504 1290
504 619
504 1292
504 608
504 854
504 977
504 1219
504 1274
504 618
504 917
504 838
504 611
504 853
504 831
504 912
504 1222
505 991
505 879
505 608
505 868
505 838
505 1219
505 611
505 510
505 866
505 885
505 886
505 994
505 1212
505 1284
505 618
505 917
505 1280
505 853
505 842
505 831
505 1222
505 914
505 850
505 1213
505 1202
505 894
505 828
505 896
505 843
505 1210
505 836
505 1254
505 1201
505 620
505 854
505 977
505 979
505 1221
506 1287
506 624
506 516
506 1255
506 1292
506 623
506 622
506 1267
506 1293
506 1186
506 1252
506 619
506 1283
506 1296
506 1282
506 1271
506 1277
506 1268
506 1281
506 1263
506 1265
506 521
506 1253
506 1671
506 1297
506 1288
506 617
507 1503
507 1286
507 615
507 1295
507 1256
507 1298
507 515
507 1269
507 1395
507 1909
508 523
508 1269
508 1295
508 613
508 515
508 1250
508 615
508 612
508 1256
508 519
508 601
508 1191
508 1286
508 1258
508 1260
508 1226
509 1210
509 520
509 1976
509 1204
509 863
509 838
509 840
509 827
509 1203
510 1280
510 850
510 828
510 868
510 879
510 1254
510 854
510 979
510 620
510 885
510 894
510 1212
510 1281
510 1671
510 1270
510 896
510 1274
510 836
510 1201
510 994
510 1290
510 619
510 1292
510 608
510 977
510 1219
510 618
510 917
510 838
510 611
510 853
510 1284
510 912
510 1222
510 914
510 1202
511 1262
511 1253
511 521
511 1277
511 622
511 1285
511 1274
511 1582
511 1265
511 620
511 994
511 1263
511 607
511 619
511 1276
512 1184
512 952
512 728
512 1120
512 1129
512 1140
512 1161
512 735
512 1279
512 630
512 1244
512 629
512 636
512 1118
512 1128
512 621
512 1226
512 1162
512 612
512 614
512 1179
512 1289
512 970
512 1148
512 734
512 1273
512 1266
512 1257
512 957
512 1133
512 517
512 1124
512 1137
512 743
512 1174
513 1218
513 1216
513 1209
513 849
513 830
513 616
513 845
513 848
513 606
513 844
513 524
513 1050
513 833
513 846
513 1211
513 582
513 584
513 826
513 839
513 518
513 841
513 834
513 829
513 603
513 1223
513 1214
513 840
513 1203
513 602
513 1220
514 706
514 522
514 584
514 846
514 518
514 616
514 606
514 829
514 605
514 1324
514 1885
514 845
514 849
514 1216
514 587
514 844
514 833
514 582
514 586
514 720
514 1206
514 1208
514 1071
514 569
515 615
515 1286
515 1269
515 1295
515 523
515 1250
515 1378
515 601
515 1503
515 1652
515 1256
515 612
516 1287
516 624
516 1255
516 623
516 1292
516 1293
516 1186
516 1187
516 1197
516 1252
516 1267
516 622
516 1296
516 1271
516 1277
516 1268
517 1133
517 1137
517 1264
517 1273
517 604
517 610
517 1257
517 1244
517 1266
517 957
517 1148
517 1272
517 1279
517 1291
517 1140
517 959
517 629
517 743
517 630
517 621
517 1226
517 1162
517 1177
517 614
517 1179
517 1289
517 728
517 600
518 584
518 849
518 582
518 1216
518 616
518 844
518 1206
518 845
518 833
518 605
518 606
518 829
518 848
518 1208
518 1214
518 706
518 1071
518 569
518 1066
518 1203
518 587
518 1218
518 602
518 1207
518 1220
518 846
518 1209
518 1211
518 586
518 720
518 830
518 522
518 524
519 1293
519 1271
519 1256
519 1260
519 1296
519 523
519 1288
519 1259
519 601
519 1258
519 617
519 624
519 1297
519 1287
519 1295
519 613
519 1286
519 1275
519 1269
519 1251
520 1976
520 1210
520 991
520 838
520 843
520 842
520 1203
520 863
521 1253
521 1263
521 1285
521 1277
521 1274
521 1265
521 622
521 1276
521 1283
521 1282
521 619
521 1262
521 1582
521 617
521 1292
521 1287
521 1268
521 1281
521 1270
521 620
521 624
521 1255
522 706
522 846
522 586
522 584
522 606
522 1885
522 587
522 829
522 616
522 605
522 849
522 1216
522 844
522 833
522 582
522 1206
522 1074
522 1208
523 613
523 1269
523 1295
523 1256
523 1260
523 1258
523 1250
523 601
523 615
523 1286
523 1815
523 1259
523 1198
523 731
523 1296
523 612
523 1293
523 1271
523 1275
524 1050
524 849
524 616
524 1066
524 1216
524 833
524 550
524 830
524 1211
524 1529
524 1218
524 844
524 1220
524 846
524 606
524 848
524 584
524 586
524 1206
524 845
524 1074
524 1208
524 1071
524 569
524 582
524 553
525 796
525 992
525 541
525 1084
525 982
525 1237
525 1079
525 1243
525 528
525 544
525 784
525 1234
525 1708
526 543
526 531
526 535
526 1535
526 534
526 981
526 789
526 528
526 544
527 663
527 788
527 799
527 1085
527 756
527 795
527 1086
527 693
527 678
527 763
527 972
527 650
527 755
527 1083
527 963
527 754
527 956
527 691
527 675
527 965
528 534
528 789
528 535
528 784
528 1092
528 531
528 541
528 544
528 1084
529 536
529 780
529 776
529 777
529 781
529 786
529 765
529 881
529 542
529 1087
529 685
529 695
529 887
529 897
529 1466
530 1076
530 779
530 1078
530 1082
530 538
530 975
530 1094
530 1535
530 595
530 548
530 792
531 534
531 1535
531 789
531 535
531 543
531 779
531 1092
531 1082
531 1078
531 981
531 792
532 774
532 761
532 750
532 760
532 684
532 798
532 539
532 1090
532 783
532 694
532 1916
533 684
533 793
533 794
533 1093
533 785
533 1091
533 1095
533 1088
533 698
533 694
533 1089
533 761
533 545
533 680
533 1075
533 1097
534 789
534 1092
534 535
534 1535
534 1078
534 784
534 779
534 543
534 792
535 543
535 789
535 1535
535 544
535 784
535 981
535 996
535 1092
536 776
536 786
536 765
536 685
536 695
536 781
536 780
536 546
536 768
536 782
536 1466
536 542
536 681
536 752
536 753
536 777
536 881
536 1087
536 1927
537 787
537 1084
537 1079
537 790
537 1080
537 541
537 942
537 985
537 791
537 929
537 1829
538 1094
538 595
538 1082
538 779
538 975
538 777
538 759
538 580
538 1175
538 577
538 780
538 1076
539 750
539 540
539 798
539 760
539 783
539 771
539 675
539 775
539 774
539 1971
539 688
539 687
539 754
539 797
539 678
539 1086
539 778
539 1077
539 1090
539 691
539 761
540 775
540 750
540 678
540 798
540 675
540 771
540 760
540 754
540 774
540 1086
540 687
540 688
540 755
540 691
540 1971
540 783
540 666
540 1090
540 663
540 1083
540 788
540 1085
540 763
540 1077
540 756
541 1084
541 1079
541 796
541 992
541 784
541 790
541 544
541 1383
541 1708
541 1829
542 897
542 1927
542 881
542 546
542 776
542 898
542 1075
542 887
542 786
542 1466
542 882
542 891
542 1087
543 1535
543 981
543 996
543 789
544 790
544 796
544 1084
544 1079
545 1097
545 1088
545 785
545 890
545 1095
545 1075
545 794
545 698
545 1176
545 887
545 1091
546 1075
546 786
546 776
546 782
546 680
546 768
546 1095
546 1927
546 685
546 1088
546 881
546 887
546 897
546 1087
546 1466
547 697
547 689
547 1077
547 770
547 1093
547 797
547 1091
547 772
547 1090
547 783
547 1089
547 761
547 684
547 686
547 694
547 698
547 757
547 794
547 1081
547 1098
547 793
547 1971
547 798
548 583
548 577
548 580
548 592
548 1076
548 590
548 777
548 891
548 780
548 898
548 1078
548 589
548 882
549 927
549 1012
549 1023
549 933
549 791
549 1000
549 1008
549 1014
549 1017
549 1248
549 1225
549 1238
549 1009
550 1066
550 1050
550 569
550 553
550 570
550 1074
550 833
550 1054
550 1529
550 1644
550 1071
550 1211
550 586
551 552
551 574
551 1045
551 932
551 662
551 939
551 1160
551 938
551 737
551 566
551 1027
551 1061
551 913
551 1034
551 1031
551 670
551 1026
551 565
551 822
551 1053
552 1045
552 939
552 662
552 1026
552 932
552 1160
552 938
552 1061
552 1031
552 744
552 574
552 737
552 913
552 726
552 1053
552 1044
552 670
552 905
552 658
552 1034
552 565
552 941
552 822
552 745
552 566
553 1066
553 570
553 1211
553 1071
553 569
553 830
553 848
553 833
553 861
553 1054
553 582
553 1050
553 849
553 1220
553 720
553 1206
553 1208
553 1214
554 674
554 658
554 1164
554 904
554 1158
554 726
554 1044
554 1061
554 659
554 1649
554 1783
554 670
554 672
554 905
554 1056
555 1057
555 563
555 1064
555 1067
555 1072
555 568
555 1062
555 911
555 1060
555 564
555 561
555 557
555 559
555 1070
556 1056
556 935
556 1053
556 565
556 1044
556 1034
556 941
556 571
556 560
556 822
556 949
556 659
556 730
556 1158
556 901
556 1065
556 1069
556 932
556 1068
556 923
556 938
556 674
556 922
556 658
556 913
557 561
557 564
557 919
557 1057
557 563
557 909
557 906
557 900
557 559
557 1067
557 911
557 1070
557 1559
557 1590
557 1627
557 1639
558 1062
558 1055
558 1073
558 1072
558 568
558 1064
558 1060
558 1067
558 573
558 924
558 563
558 903
558 1052
558 1509
558 1795
559 1054
559 1057
559 561
559 1070
559 563
559 564
559 861
559 570
559 1067
559 1064
559 1559
559 1639
559 1910
560 1069
560 922
560 1063
560 572
560 1065
560 567
560 571
560 923
560 1056
560 941
560 1790
560 1051
560 1053
560 1068
560 1058
561 1057
561 564
561 919
561 563
561 911
561 906
561 909
561 900
561 1054
561 1559
561 1639
561 1923
562 1795
562 573
562 907
562 910
562 1059
562 1052
562 903
562 567
562 1051
562 572
562 920
562 671
562 924
562 1073
562 1803
563 1067
563 1057
563 1072
563 564
563 1064
563 568
563 1062
563 1055
563 1070
563 900
563 911
563 919
563 1590
563 1627
564 1067
564 1590
564 1057
564 919
564 1627
564 900
564 1070
564 906
564 909
565 1034
565 822
565 1053
565 932
565 1044
565 938
565 913
565 941
565 662
565 658
565 935
565 949
565 1027
565 1056
565 939
565 571
565 1061
565 674
565 1045
565 737
565 726
565 1031
565 923
565 670
565 1026
565 1160
566 737
566 1160
566 574
566 1410
566 938
566 1764
566 923
567 920
567 1051
567 671
567 572
567 1069
567 741
567 901
567 910
567 907
567 922
567 1059
567 1795
568 1060
568 1062
568 1064
568 924
568 1072
568 1055
568 1067
568 1073
568 903
568 573
568 911
568 1057
569 1071
569 833
569 587
569 582
569 1066
569 586
569 1208
569 1206
569 570
569 720
569 861
569 1074
569 1214
569 706
569 584
569 1050
569 616
569 849
569 1216
569 848
569 1211
569 830
570 861
570 1066
570 1071
570 1211
570 1054
570 720
570 1208
570 587
570 833
570 582
571 1065
571 941
571 923
571 1056
571 1068
571 1053
571 913
571 1069
571 938
571 922
571 672
571 1058
571 1063
571 1649
571 822
571 674
571 1164
571 1034
571 1044
571 901
571 1160
571 658
572 922
572 1063
572 1069
572 1051
572 671
572 920
572 910
572 1052
572 1059
572 1795
572 1803
573 1052
573 1059
573 1795
573 1073
573 903
573 910
573 1060
573 1062
573 907
573 924
573 1509
573 1803
573 1832
574 737
574 1160
574 1045
574 932
574 1624
575 598
575 593
575 594
575 876
575 888
575 591
575 1744
575 1109
575 1127
575 596
575 1019
576 581
576 870
576 579
576 995
576 855
576 585
576 714
576 873
576 856
576 862
576 867
576 983
576 990
577 580
577 583
577 1082
577 592
577 595
577 589
577 777
577 781
577 780
577 590
578 888
578 876
578 593
578 597
578 877
578 893
578 1107
578 596
578 880
578 878
578 591
578 1744
579 581
579 870
579 995
579 714
579 852
579 585
579 867
579 700
580 1082
580 595
580 583
580 592
580 779
580 777
580 1076
580 1078
580 1094
580 589
580 676
580 780
580 781
581 870
581 995
581 585
581 855
581 714
581 983
581 856
581 990
581 862
582 1206
582 833
582 584
582 849
582 1208
582 1071
582 616
582 720
582 586
582 587
582 844
582 848
582 1216
582 605
582 1214
582 1218
582 1220
582 846
582 606
582 1211
582 830
582 1074
582 845
582 706
582 829
582 1207
582 1066
583 592
583 590
583 589
583 792
583 1076
583 1078
583 1082
583 779
583 891
584 1206
584 616
584 849
584 833
584 1216
584 844
584 1208
584 605
584 606
584 706
584 720
584 829
584 845
584 846
584 1214
584 1218
584 1207
584 1220
584 848
584 586
584 830
584 1074
584 587
584 1071
584 1066
585 995
585 855
585 990
585 983
585 870
585 714
585 988
585 987
585 998
586 833
586 587
586 1074
586 706
586 1206
586 846
586 616
586 606
586 720
586 1208
586 849
586 1216
586 1071
586 1066
587 1208
587 1206
587 720
587 833
587 1071
587 704
587 706
587 1074
587 874
587 616
587 849
587 846
588 899
588 1010
588 883
588 1018
588 1003
588 1006
588 1007
588 1931
588 1048
588 625
589 590
589 592
589 1723
589 878
589 893
589 877
589 792
589 882
589 1463
589 1726
590 882
590 875
590 592
590 891
590 893
590 878
590 898
590 877
590 1463
591 1127
591 876
591 593
591 888
591 1109
591 597
591 1107
591 594
591 1744
591 598
591 1029
591 1676
592 792
592 1078
592 1076
592 1092
592 1082
592 779
593 876
593 888
593 1744
593 597
593 596
593 598
593 1127
593 594
593 1107
594 818
594 598
594 1931
594 899
594 803
595 1094
595 759
595 777
595 781
595 1082
595 1175
595 780
595 676
595 764
596 888
596 1744
596 876
596 877
596 597
596 1383
596 893
596 1107
596 1448
597 1744
597 876
597 878
597 888
597 893
597 877
597 880
597 1483
597 1723
597 1726
598 1108
598 1109
598 1116
598 1119
598 1142
598 876
598 1127
599 625
599 1048
599 811
599 812
599 806
599 1003
599 1126
599 899
599 819
599 1131
600 1264
600 1133
600 1289
600 604
600 610
600 1378
600 1510
600 1279
600 1148
600 1137
600 1273
600 1266
600 1244
600 1257
600 630
600 1177
600 614
600 1179
600 1291
601 1191
601 1180
601 1249
601 1189
601 1199
601 1187
601 1228
601 1293
601 1271
602 1203
602 603
602 826
602 840
602 1209
602 839
602 841
602 834
602 1220
602 845
602 863
602 842
602 1204
602 1207
602 1218
602 835
602 848
602 1224
602 837
602 1213
602 1215
602 1217
602 830
602 847
602 1210
602 825
602 827
602 829
602 1976
602 869
602 1221
602 618
602 1223
602 609
602 1214
602 1216
602 844
603 826
603 839
603 847
603 841
603 840
603 835
603 1209
603 825
603 1224
603 1217
603 609
603 834
603 837
603 842
603 863
603 1203
603 1204
603 1221
603 1223
603 618
603 1218
603 844
603 1220
603 914
603 848
603 1213
603 1215
603 830
603 845
603 1210
603 836
603 1214
603 827
603 1205
603 1207
603 869
604 610
604 1264
604 1133
604 1289
604 1273
604 1177
604 1137
604 1257
604 1266
604 959
604 1291
604 1244
604 630
604 1250
604 621
604 612
604 1298
604 614
604 1179
604 728
604 1279
604 1226
604 1272
604 1140
604 1261
604 1278
604 957
604 1148
605 829
605 844
605 845
605 1324
605 1207
605 706
605 1885
605 849
605 1203
605 1976
605 616
605 1216
605 846
605 606
605 1206
605 1208
606 616
606 846
606 1216
606 849
606 829
606 1050
606 1218
606 844
606 848
606 1206
606 845
606 706
606 833
607 977
607 1284
607 853
607 1202
607 1222
607 1285
607 831
607 1618
607 620
607 1219
607 1276
608 1219
608 611
608 868
608 896
608 1201
608 1222
608 1202
608 914
608 836
608 853
608 618
608 828
608 831
608 838
608 854
608 917
608 977
608 1213
608 1284
608 843
608 1210
608 1212
608 1254
608 827
608 1205
608 1200
608 879
608 991
608 863
608 979
608 1221
608 620
608 1280
608 842
608 912
608 1290
608 850
608 1281
608 894
609 1221
609 842
609 825
609 1215
609 1224
609 837
609 869
609 847
609 843
609 863
609 832
609 866
609 1207
609 611
609 1220
609 1209
609 914
609 1213
609 839
609 841
609 1217
609 845
609 1210
609 836
609 838
609 1214
609 827
609 840
609 1203
609 886
609 835
609 826
609 991
609 1976
609 618
610 1264
610 1177
610 1273
610 1133
610 1289
610 959
610 1137
610 1278
610 1291
610 957
610 1148
610 1244
610 1257
610 630
610 1250
610 621
610 1226
610 612
610 1298
610 1179
610 728
610 1266
610 1279
610 1272
610 1140
610 1261
611 1219
611 1222
611 836
611 1202
611 914
611 1201
611 896
611 868
611 618
611 831
611 838
611 853
611 977
611 1213
611 1205
611 835
611 1200
611 879
611 828
611 863
611 1254
611 620
611 917
611 1284
611 991
611 1290
611 850
611 854
611 1217
611 843
611 1221
611 1210
611 1212
611 1280
611 825
611 827
611 842
612 1250
612 1226
612 621
612 1269
612 1289
612 1295
612 613
612 1140
612 1278
612 728
612 959
612 1137
612 1273
612 1198
612 1266
612 1189
612 1244
612 1257
612 630
612 1261
612 1120
612 1133
612 1298
612 735
612 1179
612 1163
612 734
612 1279
612 1171
613 1269
613 1295
613 1258
613 1170
613 731
613 1250
613 1163
613 1198
613 1275
613 1815
613 1251
613 1171
613 1296
613 1298
613 1169
613 727
613 1226
613 1256
613 1271
613 1260
614 630
614 1179
614 1148
614 1140
614 1124
614 1279
614 1118
614 1266
614 952
614 628
614 1100
614 1128
614 957
614 1133
614 640
614 1137
614 1264
614 1189
614 1244
614 1257
614 1129
614 1184
614 1120
614 629
614 1289
614 728
614 1226
615 1286
615 1295
615 1503
615 1269
615 1256
615 1378
615 1510
615 1652
615 1250
616 849
616 1216
616 846
616 833
616 844
616 829
616 1050
616 1218
616 1220
616 848
616 720
616 1206
616 845
616 1208
616 1214
616 706
616 1071
616 1209
616 1066
616 830
616 1074
617 1265
617 1288
617 1282
617 1293
617 1252
617 1582
617 1263
617 1256
617 1287
617 1262
617 1253
617 622
617 624
617 1297
617 1277
618 914
618 1213
618 836
618 838
618 1201
618 1221
618 1222
618 1202
618 1219
618 842
618 843
618 863
618 991
618 1210
618 917
618 853
618 866
618 1284
618 835
618 1224
618 1215
618 854
618 1217
618 896
618 832
618 847
618 1212
618 1254
618 825
618 827
618 840
618 1205
618 831
618 1200
618 868
618 828
618 977
619 1281
619 620
619 1274
619 850
619 1285
619 1283
619 1280
619 979
619 1671
619 1277
619 1292
619 622
619 994
619 1270
619 1276
619 1284
619 868
619 912
619 1290
619 854
619 977
619 1219
619 1287
619 1263
619 1253
619 879
619 1255
619 828
619 623
619 1254
619 853
620 1274
620 1281
620 850
620 1285
620 1254
620 1284
620 979
620 1280
620 853
620 994
620 1276
620 1277
620 1283
620 1253
620 879
620 1202
620 828
620 1299
620 622
620 1671
620 868
620 912
620 1222
620 1290
620 1292
620 1270
620 854
620 896
620 977
620 1219
620 1263
621 1257
621 959
621 1261
621 1226
621 734
621 1250
621 1278
621 1298
621 1279
621 1272
621 1140
621 970
621 1133
621 1269
621 961
621 1137
621 1273
621 1264
621 1198
621 1266
621 1244
621 630
621 1171
621 1184
621 1177
621 735
621 1179
621 1289
621 728
621 743
621 1161
622 1277
622 1253
622 1292
622 1262
622 1274
622 1287
622 1263
622 1252
622 1265
622 1285
622 1582
622 1671
622 624
622 1255
622 623
622 979
622 994
622 1282
622 850
622 1281
622 1283
623 1292
623 1671
623 1281
623 1255
623 624
623 1287
623 1186
623 1277
623 850
623 1270
623 1283
623 979
623 1267
623 1280
624 1255
624 1287
624 1267
624 1268
624 1293
624 1282
624 1297
624 1252
624 1265
624 1271
624 1253
624 1296
624 1288
624 1277
624 1292
624 1283
624 1263
625 1131
625 811
625 1126
625 819
625 812
625 1003
625 1115
625 1048
625 889
625 1010
625 883
626 1101
626 1342
626 649
626 1143
626 635
626 1144
626 1139
626 627
626 1104
626 1114
626 1444
626 1670
626 1875
627 633
627 1104
627 1114
627 1139
627 1101
627 1138
627 1342
627 1143
627 1110
627 649
627 884
627 1144
627 1146
627 1658
628 1189
628 1179
628 1105
628 1118
628 630
628 636
628 1180
628 1174
628 634
628 1191
628 1226
628 952
628 1140
628 1129
628 1120
628 1124
629 952
629 1128
629 1118
629 1279
629 1124
629 1184
629 630
629 640
629 1148
629 1129
629 1100
629 1162
629 1835
629 957
629 970
629 1133
629 1137
629 1266
629 1244
629 1257
629 1120
629 1179
629 728
629 1161
629 1140
630 1140
630 1179
630 1279
630 1266
630 952
630 1148
630 1118
630 1244
630 1124
630 1128
630 1226
630 957
630 1133
630 1137
630 1273
630 1264
630 1189
630 1257
630 1129
630 1184
630 1120
630 735
630 1289
630 728
631 884
631 641
631 1110
631 1125
631 1138
631 1134
631 1149
631 1132
631 880
631 1658
631 1676
631 1936
632 1119
632 1145
632 1108
632 1142
632 889
632 1131
632 1541
633 1139
633 1114
633 1104
633 1138
633 1143
633 1101
633 1658
633 1342
633 875
633 884
633 1144
633 1146
633 1875
634 1123
634 1105
634 1117
634 1118
634 636
634 1130
634 1124
634 1136
634 1413
634 1819
634 1961
635 1106
635 649
635 1342
635 1101
635 1141
635 1144
635 1444
635 1135
635 1111
635 1474
635 1492
635 1978
636 1174
636 1120
636 1129
636 1184
636 952
636 962
636 1118
636 960
636 1105
636 1123
636 1180
636 1189
636 1140
636 1199
636 1163
636 735
636 1161
637 644
637 1102
637 647
637 646
637 1147
637 645
637 1122
637 1980
637 639
637 1526
638 1135
638 1103
638 1526
638 1106
638 1141
638 648
638 1111
638 647
638 1980
638 1782
638 1914
639 1122
639 646
639 1130
639 1147
639 1136
639 1102
639 645
639 644
639 1117
639 643
639 1434
639 1813
640 1100
640 1148
640 957
640 1128
640 1124
640 1279
640 1162
640 1835
640 952
640 1118
641 1110
641 884
641 1125
641 1138
641 1134
641 1149
641 1146
641 880
641 1532
641 1676
641 1751
641 1936
642 1113
642 1107
642 1972
642 1121
642 1116
642 1132
642 1109
642 1149
642 1347
642 1127
643 1147
643 1434
643 1914
643 1813
643 1122
643 648
643 647
643 1102
643 646
644 1102
644 646
644 647
644 645
644 1122
644 1147
644 1980
644 1491
644 1526
644 1916
645 646
645 1122
645 1147
645 1197
645 1136
645 1102
645 1117
646 1122
646 1102
646 1147
646 1130
646 1136
646 1117
646 1434
646 1813
647 1102
647 648
647 1526
647 1980
647 1135
647 1103
647 1147
647 1434
647 1782
647 1813
647 1914
648 1135
648 1141
648 1106
648 1914
648 1111
648 1434
648 1103
648 1492
648 1526
648 1813
649 1342
649 1101
649 1144
649 1143
649 1139
649 1104
649 1106
649 1444
649 1978
650 663
650 972
650 755
650 788
650 1646
651 673
651 665
651 669
651 653
651 652
651 656
651 655
651 664
651 740
651 1155
651 747
651 1166
651 1877
652 740
652 1155
652 1166
652 664
652 669
652 1151
652 1172
652 747
652 665
652 653
652 655
652 673
652 1862
652 1939
653 673
653 656
653 660
653 1153
653 1426
653 747
653 665
653 669
653 655
653 1877
654 1083
654 763
654 754
654 678
654 1086
654 775
654 1165
654 771
654 666
654 660
654 1426
654 1667
654 756
654 773
654 755
654 688
654 788
654 1085
655 673
655 665
655 669
655 664
655 656
655 660
655 667
655 1166
656 747
656 1877
656 1153
656 673
656 1426
656 660
656 665
657 1800
657 1939
657 668
657 661
657 667
657 1167
657 725
657 908
658 1044
658 1061
658 913
658 726
658 674
658 1026
658 939
658 670
658 938
658 1053
658 744
658 905
658 1031
658 1649
658 932
658 745
658 923
658 1160
658 1034
658 662
658 941
658 822
658 1056
658 1045
659 730
659 1158
659 1056
659 674
659 901
659 1783
659 935
659 1044
660 1426
660 1153
660 673
660 686
660 1165
660 772
660 1667
661 1167
661 1150
661 908
661 741
661 1164
661 668
661 904
661 725
661 901
661 667
661 672
661 921
661 1800
661 1939
661 916
662 1045
662 1031
662 1061
662 670
662 932
662 822
662 1026
662 939
662 1034
662 726
662 815
662 1027
662 1053
662 1044
662 674
662 905
662 913
662 938
662 744
662 935
663 788
663 1085
663 1086
663 756
663 799
663 678
663 755
663 763
663 795
663 754
663 972
663 963
663 965
663 956
663 691
663 693
663 675
663 1083
664 669
664 1155
664 1939
664 740
664 665
664 1166
664 1151
664 667
664 673
665 669
665 673
665 667
665 1166
665 1151
666 688
666 771
666 773
666 1083
666 732
666 678
666 1971
666 756
666 1152
666 763
666 775
666 754
666 677
666 1156
666 795
666 788
666 1085
666 963
666 1086
666 778
667 908
667 1151
667 1167
667 668
667 669
667 921
667 1150
667 1166
667 1939
668 1167
668 908
668 1164
668 904
668 901
668 1783
668 1800
668 1939
669 673
669 1166
669 1151
669 740
669 1155
670 1031
670 1061
670 1026
670 726
670 939
670 1045
670 905
670 674
670 822
670 1783
670 913
670 1034
670 938
670 744
670 932
670 1053
670 1044
671 1051
671 920
671 741
671 910
671 916
671 901
671 1069
671 1059
671 1068
671 903
671 907
671 921
671 1150
671 922
672 1164
672 904
672 1068
672 1065
672 1649
672 741
672 901
672 725
672 1800
672 1167
673 1166
673 1153
674 1044
674 1061
674 1158
674 1056
674 726
674 1031
674 730
674 1783
674 939
674 1053
674 905
674 1026
674 913
674 1034
674 822
674 938
675 691
675 760
675 788
675 690
675 756
675 750
675 778
675 965
675 1086
675 956
675 771
675 755
675 754
675 795
675 678
675 799
675 1085
675 972
676 759
676 1181
676 781
676 764
676 696
676 682
676 1175
676 769
677 778
677 1173
677 965
677 736
677 1152
677 956
677 756
677 691
677 1740
677 693
677 688
677 795
677 963
678 1086
678 754
678 763
678 756
678 1083
678 1085
678 788
678 771
678 688
678 755
678 775
678 691
678 693
678 795
678 799
678 963
679 719
679 1181
679 857
679 758
679 858
679 926
679 948
680 1095
680 782
680 768
680 1075
680 793
680 1088
680 786
680 685
680 767
680 776
680 681
681 767
681 685
681 752
681 695
681 782
681 768
681 753
681 765
681 786
681 776
681 692
682 1181
682 1182
682 683
682 851
682 719
682 1175
682 759
682 769
682 764
682 857
683 719
683 751
683 1182
683 872
683 851
683 860
683 857
683 1181
683 701
683 1183
683 715
683 769
683 858
683 1175
683 708
683 1196
683 703
683 699
683 1185
684 1093
684 1091
684 761
684 794
684 694
684 1089
684 1090
684 697
684 783
684 785
684 698
684 793
684 1098
684 1099
684 774
684 1077
684 1081
684 689
684 798
684 797
685 695
685 768
685 782
685 786
685 767
685 776
685 765
685 752
685 753
685 692
685 1466
686 772
686 757
686 770
686 689
686 1426
686 697
686 1154
686 1077
686 918
686 1159
687 774
687 755
687 775
687 1098
687 754
687 1090
687 1393
687 1667
688 771
688 773
688 1971
688 1083
688 775
688 754
688 778
688 783
688 1152
688 1086
688 750
688 763
688 756
688 798
688 732
688 788
688 1085
689 1077
689 697
689 1090
689 772
689 770
689 783
689 1098
689 797
689 1971
689 798
689 694
689 757
689 775
689 1089
689 1091
689 1093
689 761
689 774
689 1081
690 760
690 972
690 691
690 1916
691 956
691 795
691 965
691 972
691 778
691 788
691 760
691 973
691 799
691 1085
691 963
691 1086
691 756
691 693
691 750
692 753
692 752
692 695
692 767
692 1590
692 766
692 765
692 867
692 696
692 768
693 795
693 963
693 965
693 799
693 1085
693 756
693 956
693 788
693 968
693 972
693 1086
693 954
693 953
693 967
693 973
694 1098
694 1090
694 697
694 1093
694 1077
694 774
694 770
694 1091
694 761
694 772
694 793
694 798
694 1089
694 794
694 783
695 752
695 765
695 753
695 767
695 768
695 786
695 782
695 776
695 781
696 762
696 766
696 764
696 769
696 1175
696 857
696 759
696 1181
696 719
697 1077
697 1090
697 770
697 772
697 1098
697 783
697 797
697 1093
697 1091
697 757
697 761
697 1089
697 794
697 774
697 1081
697 775
697 1971
697 798
698 794
698 785
698 1091
698 1093
698 1089
698 890
698 793
698 1081
698 757
698 1088
698 1095
698 1097
698 1188
698 1193
699 858
699 859
699 1196
699 871
699 703
699 860
699 758
699 928
699 930
699 1183
699 751
699 872
699 701
700 705
700 709
700 864
700 716
700 710
700 852
700 714
700 707
700 711
700 718
700 724
700 867
701 1185
701 703
701 751
701 872
701 1196
701 1183
701 859
701 702
701 708
701 713
701 715
701 721
701 723
701 860
701 871
702 723
702 721
702 1185
702 859
702 703
702 713
703 1196
703 871
703 859
703 1185
703 708
703 723
703 751
703 860
703 865
703 1183
703 721
703 872
703 858
704 714
704 873
704 711
704 874
704 705
705 716
705 714
705 711
705 709
705 852
705 864
705 710
705 718
705 867
706 1206
706 846
706 720
706 845
706 1208
706 849
706 1216
706 829
706 1071
706 844
706 833
706 1074
707 722
707 709
707 724
707 717
707 713
707 718
707 710
707 716
708 715
708 1185
708 723
708 1196
708 860
708 865
708 751
708 1182
708 871
708 851
709 864
709 710
709 716
709 722
709 717
709 718
709 724
710 864
710 722
710 724
710 769
710 718
710 852
711 716
711 718
711 714
711 873
711 852
711 867
711 1908
712 1644
712 1074
712 1840
713 722
713 1185
713 723
713 721
713 724
713 717
714 995
714 873
714 716
714 852
714 867
714 870
714 874
714 855
715 851
715 1182
715 1185
715 751
715 860
716 718
717 722
717 1368
718 724
718 722
718 852
718 867
718 766
719 857
719 1181
719 751
719 872
719 1182
719 1183
719 858
719 762
719 851
720 1208
720 1206
720 1071
720 833
720 1214
720 1066
720 848
720 845
720 849
720 1216
720 844
720 1207
720 1220
720 830
720 874
721 1183
721 872
721 1185
721 859
721 751
721 1794
721 871
721 758
721 1196
722 724
722 864
723 1185
723 1196
723 871
723 865
723 859
724 769
724 852
724 762
724 864
724 766
724 1794
725 1800
725 1939
725 904
725 1150
725 1167
725 1164
725 1314
725 1862
725 1983
726 905
726 1026
726 744
726 939
726 1061
726 1031
726 745
726 1649
726 822
726 932
726 1053
726 1044
726 938
726 1160
726 1045
726 913
727 1163
727 731
727 1169
727 1171
727 1170
727 966
727 738
727 1199
727 1174
727 962
727 960
727 974
727 735
727 1258
728 1244
728 1140
728 1257
728 1184
728 1279
728 1266
728 734
728 735
728 743
728 952
728 970
728 1120
728 1129
728 1161
728 1162
728 1148
728 961
728 1273
728 1264
728 1261
728 1250
728 957
728 1133
728 959
728 1137
728 1179
728 1226
728 1118
728 1289
729 748
729 736
729 1415
729 1152
729 1168
729 1173
730 1158
730 1056
730 935
730 901
730 1721
730 1044
731 1163
731 1199
731 1169
731 1170
731 1171
731 1174
731 1258
731 738
731 1180
731 966
731 1191
731 1275
732 773
732 733
732 1156
732 1152
732 739
732 742
732 749
732 1154
732 1165
732 771
732 1083
733 749
733 742
733 1152
733 739
733 736
733 1156
733 1808
733 1824
733 773
734 735
734 1161
734 743
734 970
734 1171
734 1184
734 1257
734 969
734 1163
734 1261
734 1279
734 1226
734 1162
734 1289
734 1278
734 959
734 961
734 1137
734 1273
734 952
734 1266
734 1140
734 1129
734 1250
734 1120
734 1244
735 1161
735 1184
735 1120
735 1171
735 970
735 1129
735 969
735 1163
735 1174
735 743
735 1244
735 1279
735 1226
735 1137
735 952
735 1266
735 1257
735 1140
735 1261
736 748
736 1173
736 1152
736 749
736 1808
736 1156
737 1160
737 938
737 913
737 1410
737 939
737 941
737 932
737 1053
737 745
737 923
737 744
738 966
738 1169
738 746
738 1170
738 1943
738 1275
738 1163
738 1258
739 749
739 1157
739 1154
739 1156
739 742
739 1153
739 1359
739 1447
739 1824
740 1155
740 1166
740 1172
740 747
740 1151
740 1862
740 902
740 1159
741 901
741 920
741 1051
741 1167
741 1068
741 908
741 1164
741 904
741 910
741 916
741 921
741 1150
741 922
741 1065
741 1069
742 1824
742 749
742 1154
742 918
742 1792
743 970
743 961
743 1162
743 1272
743 1257
743 1161
743 1244
743 1279
743 957
743 959
743 1137
743 1273
743 1266
743 1261
743 1184
743 1133
744 905
744 745
744 939
744 1026
744 1061
744 913
744 1649
744 1160
744 1045
744 1031
744 1044
744 938
745 939
745 1160
745 905
745 913
745 938
745 1026
745 1410
745 1649
745 1762
745 941
745 1044
745 1061
746 966
746 1943
746 1168
746 1415
746 1740
746 1169
746 1533
746 1574
746 1657
747 1155
747 1153
747 1157
747 1877
747 1159
748 1415
748 1168
748 1173
748 1152
748 1533
748 1740
748 1808
749 1156
749 1359
749 1157
749 1447
749 1808
749 1824
750 760
750 798
750 783
750 774
750 761
750 1090
750 778
750 771
750 797
750 1971
750 775
751 872
751 1183
751 1185
751 1196
751 857
751 858
751 860
751 871
751 859
751 1182
752 753
752 765
752 767
752 768
752 782
752 786
752 776
752 1590
753 767
753 765
753 768
753 782
753 786
753 776
753 1590
754 763
754 1086
754 1083
754 775
754 756
754 788
754 1085
754 755
754 771
754 1667
754 799
754 1165
755 1086
755 788
755 763
755 1667
755 1083
755 775
755 1085
755 756
756 1085
756 788
756 1086
756 795
756 799
756 1083
756 763
756 972
756 963
756 965
756 956
756 771
756 775
757 770
757 772
757 793
757 1093
757 1091
757 1077
757 794
758 945
758 1183
758 936
758 948
758 1794
758 930
758 859
758 872
759 1175
759 764
759 769
759 851
759 1094
759 1182
759 766
759 1181
760 798
760 778
760 783
760 774
761 783
761 1089
761 1091
761 1090
761 1093
761 798
761 797
761 794
761 1081
761 774
761 1099
761 1077
762 857
762 769
762 766
762 764
762 1175
762 872
762 1181
762 926
762 1794
763 1083
763 1086
763 1085
763 788
763 775
763 771
763 1165
763 1667
763 795
763 799
764 769
764 1175
764 851
764 1182
764 766
764 852
764 1181
765 781
765 776
765 786
765 767
765 780
765 777
765 881
765 1087
766 867
766 852
766 769
766 1175
767 768
767 782
767 786
767 776
767 1590
768 782
768 786
768 776
768 1095
768 1075
768 1466
769 1175
769 851
769 1182
769 857
769 852
770 772
770 1077
770 1098
770 1090
770 1093
770 793
770 1091
770 797
770 783
771 1971
771 773
771 775
771 1083
771 783
771 798
771 1086
771 778
771 1077
771 1085
771 788
772 1077
772 1098
772 1090
772 1971
772 797
772 783
772 1093
773 1971
773 1152
773 1083
773 775
774 1090
774 1098
774 798
774 783
774 1077
774 775
775 1971
775 1083
775 1077
775 1098
775 783
775 798
775 1086
775 1090
776 786
776 782
776 1466
776 1927
776 781
776 780
776 881
776 897
776 1075
776 1087
777 780
777 781
777 1094
778 965
778 795
778 956
779 1082
779 1078
779 1076
779 1535
779 1094
779 789
779 792
779 1092
780 781
780 881
780 1087
781 1466
782 786
782 1095
782 1075
782 1466
783 798
783 1090
783 797
783 1077
783 1971
783 1081
783 1089
783 1098
783 1099
783 1091
783 1093
784 789
784 1092
784 1234
784 1084
784 1237
784 982
784 792
784 1232
784 1383
784 1708
785 794
785 890
785 1091
785 1097
785 1093
785 1089
785 1088
785 1095
785 793
785 1176
785 1188
785 1193
786 1075
786 881
786 1087
786 1466
786 1927
787 1080
787 942
787 929
787 791
787 985
787 1079
787 947
787 925
787 1020
787 1829
787 946
788 1085
788 1086
788 799
788 795
788 972
788 963
788 965
788 956
788 1083
789 1092
789 1535
789 1078
789 792
790 1084
790 1079
790 796
790 985
791 1829
791 1017
791 1248
791 1080
791 1000
791 1020
791 1708
792 1092
792 1078
792 1076
792 1232
793 1095
793 1093
793 1091
793 794
793 1088
794 1091
794 1093
794 1089
794 1081
794 890
794 1088
794 1095
794 1097
794 1099
794 797
795 965
795 963
795 799
795 1085
795 956
795 972
795 1086
795 954
795 967
795 1083
795 953
795 973
796 992
796 1079
796 1084
796 982
796 1237
796 1243
796 985
797 1081
797 798
797 1089
797 1971
797 1090
797 1077
797 1091
797 1099
797 1093
798 1090
798 1971
798 1077
798 1081
798 1099
798 1098
798 1089
799 1085
799 963
799 965
799 972
799 1086
799 956
799 1083
799 953
800 1039
800 802
800 1038
800 824
800 1043
800 823
800 816
800 815
800 814
800 1047
800 1027
800 1035
800 1481
800 1573
800 1721
800 1749
801 817
801 1040
801 1049
801 1028
801 820
801 808
801 1425
801 804
801 1033
801 1037
801 1843
801 810
801 1557
802 1039
802 824
802 1043
802 1038
802 816
802 1047
802 815
802 823
802 1027
802 814
802 931
802 1042
802 1481
802 1749
803 1631
803 1623
803 818
803 805
803 1843
803 1029
803 807
803 1453
803 806
803 1048
803 821
803 1376
803 1848
804 1037
804 810
804 1028
804 817
804 1025
804 1041
804 1033
804 1032
804 1049
804 1046
804 1040
804 1030
804 1501
804 1853
805 1631
805 1843
805 1029
805 807
805 808
805 1623
805 820
805 818
805 1425
805 1453
805 1701
806 1048
806 812
806 899
806 821
806 1453
806 1623
806 1848
807 1029
807 1631
807 808
807 1623
807 820
807 1843
807 1040
807 821
807 1436
807 1579
807 1453
808 820
808 1040
808 1631
808 1029
808 1843
808 1049
808 1425
808 1033
808 1028
808 1436
808 1453
808 1557
808 1852
809 1035
809 813
809 814
809 823
809 1030
809 1046
809 1036
809 1042
809 1047
809 816
809 1696
809 1041
809 1025
809 1300
809 1481
809 1484
809 1731
809 1734
810 1041
810 1025
810 1032
810 1046
810 1037
810 1030
810 813
810 817
810 1028
810 1049
810 1033
810 1484
810 1845
811 1131
811 819
811 1126
811 1115
811 883
811 895
811 1003
811 1010
811 1018
811 889
812 1048
812 899
812 818
812 821
813 1046
813 1030
813 1041
813 1036
813 1035
813 1025
813 814
813 1032
813 1696
813 1042
813 1300
813 1484
813 1731
813 1734
813 1845
814 823
814 1047
814 1035
814 816
814 1039
814 1042
814 1043
814 824
814 1036
814 1030
814 1300
814 1481
814 1696
814 1731
815 1027
815 1038
815 949
815 822
815 932
815 1034
815 1045
815 1039
815 1611
815 1749
816 1043
816 824
816 1039
816 823
816 1047
816 931
816 1036
816 940
816 1035
816 1042
816 1300
816 1696
817 1028
817 1049
817 1040
817 1037
817 1033
817 820
817 1032
817 1425
817 1025
817 1041
818 1931
818 899
818 1048
818 1623
818 1631
819 1131
819 1126
819 889
819 1112
819 1115
819 1630
820 1040
820 1049
820 1425
820 1029
820 1028
820 1843
820 1631
820 1033
820 1436
820 1483
820 1579
821 1623
821 1029
821 1436
821 1631
821 1453
822 1034
822 932
822 1044
822 1053
822 935
822 1061
822 1031
822 913
822 949
822 1027
822 1045
822 1026
822 939
822 941
822 938
822 1056
823 1035
823 1039
823 1047
823 1043
823 824
823 1038
823 1042
823 1036
823 1481
823 1696
823 1721
823 1731
823 1734
824 1043
824 1039
824 931
824 1047
824 949
824 1038
824 1027
824 940
824 943
824 1300
824 1696
825 1224
825 847
825 1221
825 1215
825 835
825 837
825 839
825 826
825 842
825 841
825 832
825 869
825 1217
825 843
825 834
825 1210
825 836
825 838
825 1201
825 827
825 840
825 1203
825 1205
825 1200
825 863
825 1223
825 1214
825 1207
825 1220
825 1209
825 914
825 1213
826 839
826 841
826 1209
826 847
826 1223
826 840
826 1220
826 1218
826 835
826 834
826 837
826 1203
826 1217
826 1224
826 863
826 845
826 1221
826 1214
826 1216
826 842
826 844
826 1207
826 848
826 1211
826 1213
826 1215
826 1204
826 830
826 827
827 863
827 1217
827 1205
827 840
827 1204
827 831
827 836
827 835
827 1213
827 1202
827 1222
827 1210
827 1798
827 834
827 838
827 1201
827 1203
827 977
827 1219
827 1221
827 847
827 842
827 914
827 1224
827 839
827 896
828 868
828 854
828 1254
828 1280
828 850
828 853
828 879
828 894
828 912
828 917
828 1212
828 1290
828 1222
828 914
828 1200
828 1213
828 1281
828 1202
828 1270
828 896
828 885
828 1274
828 836
828 838
828 1201
828 831
828 1671
828 977
828 1219
828 979
828 1284
829 844
829 845
829 1216
829 846
829 1324
829 1885
829 849
829 1206
829 1203
830 848
830 1220
830 1211
830 1218
830 1223
830 1214
830 1209
830 849
830 841
830 839
830 1050
830 1066
830 833
830 1216
830 844
830 1207
830 837
830 1215
830 1206
830 845
830 1208
830 834
830 1203
830 1071
831 1202
831 1222
831 896
831 836
831 1205
831 1213
831 1219
831 1201
831 914
831 977
831 1798
831 1221
831 847
831 917
831 838
831 840
831 853
831 1284
831 835
831 1200
831 1204
831 1217
831 1210
831 1254
831 868
831 1290
831 863
831 854
832 1224
832 1215
832 1221
832 837
832 1212
832 886
832 906
832 915
832 918
832 1213
832 847
832 1200
832 869
832 866
833 1071
833 1206
833 849
833 1208
833 1066
833 1074
833 1050
833 1214
833 1216
833 844
833 1207
833 1220
833 846
833 848
833 1211
833 845
834 1209
834 840
834 1218
834 1204
834 839
834 1217
834 1223
834 1798
834 835
834 848
834 1224
834 841
834 845
834 1203
834 863
834 847
834 1220
835 1217
835 847
835 1224
835 840
835 839
835 863
835 841
835 1213
835 1204
835 1205
835 1798
835 1221
835 1223
835 842
835 1218
835 1220
835 1209
835 1222
835 914
835 837
835 1202
835 1215
835 896
835 1210
835 836
835 838
835 1201
835 1203
835 1200
836 914
836 1213
836 1222
836 1202
836 838
836 1201
836 1219
836 896
836 863
836 1205
836 1210
836 868
836 991
836 854
836 977
836 1221
836 917
836 853
836 1284
836 842
836 1290
836 1224
836 1204
836 1217
836 843
836 847
836 1254
836 840
836 1200
837 1215
837 1224
837 1214
837 1220
837 869
837 1207
837 839
837 841
837 840
837 1203
837 863
837 1221
837 1223
837 842
837 1218
837 1209
837 848
837 1211
837 843
837 845
837 847
838 1210
838 914
838 1222
838 1202
838 1219
838 991
838 1213
838 843
838 863
838 977
838 1976
838 854
838 1221
838 917
838 840
838 853
838 1284
838 842
838 1204
838 1217
838 896
838 1254
838 1201
838 1205
838 879
838 868
839 841
839 1209
839 847
839 1223
839 1220
839 1224
839 1214
839 1215
839 1217
839 1218
839 1203
839 863
839 1221
839 840
839 842
839 844
839 1207
839 848
839 1211
839 1213
839 1204
839 845
840 1204
840 863
840 1203
840 1217
840 1209
840 845
840 1221
840 847
840 1210
840 1223
840 842
840 1205
840 1218
840 844
840 1207
840 1220
840 1222
840 914
840 1213
840 1202
840 1215
840 841
840 1224
840 1976
841 1223
841 847
841 1209
841 1220
841 1218
841 1224
841 1214
841 842
841 848
841 1211
841 1215
841 1217
841 845
841 1203
841 1207
841 863
841 1221
842 1221
842 863
842 843
842 1203
842 1224
842 1215
842 869
842 991
842 1976
842 866
842 1220
842 1209
842 1222
842 914
842 1213
842 1202
842 1204
842 1217
842 845
842 847
842 1210
842 1201
842 1214
842 1207
843 991
843 866
843 869
843 1221
843 886
843 892
843 1190
843 1976
843 1207
843 914
843 1224
843 1213
843 1215
843 1210
843 1203
843 863
843 1212
844 845
844 1216
844 849
844 1207
844 1203
844 1324
844 1214
844 1218
844 1220
844 846
844 1209
844 848
844 1206
844 1208
844 1071
845 1216
845 1203
845 1207
845 1220
845 849
845 848
845 1214
845 1223
845 1218
845 846
845 1209
845 1215
845 1206
845 1208
845 1071
846 1216
846 849
846 1885
846 1206
846 1074
846 1208
847 1224
847 1217
847 1221
847 1798
847 863
847 1223
847 1214
847 1205
847 1218
847 1207
847 1220
847 1209
847 914
847 1200
847 1213
847 1215
847 1204
847 1201
847 1203
848 1220
848 1214
848 849
848 1218
848 1211
848 1216
848 1209
848 1223
848 1203
848 1071
848 1066
848 1050
848 1207
848 1215
848 1206
848 1208
849 1216
849 1206
849 1050
849 1209
849 1066
849 1074
849 1223
849 1218
849 1220
849 1211
849 1208
849 1214
849 1071
849 1207
850 1280
850 1281
850 979
850 879
850 1254
850 1671
850 994
850 1284
850 917
850 853
850 912
850 1222
850 1277
850 1290
850 1202
850 894
850 1270
850 1283
850 896
850 1219
850 1274
850 1212
850 1201
850 868
850 885
850 1292
850 854
850 1285
850 977
851 1182
851 1175
851 1094
851 1181
852 867
853 1254
853 1219
853 896
853 868
853 1284
853 854
853 977
853 1290
853 1299
853 1222
853 914
853 1213
853 1281
853 1202
853 1270
853 1285
853 1274
853 1276
853 1201
853 1205
853 879
853 979
853 917
853 1280
853 912
854 917
854 868
854 1254
854 1201
854 896
854 912
854 1200
854 1290
854 1205
854 1671
854 879
854 1299
854 977
854 1219
854 979
854 1280
854 1284
854 1222
854 914
854 1213
854 1281
854 1202
854 894
854 1270
854 885
854 1212
855 870
855 995
855 983
855 873
855 990
855 874
855 856
855 862
856 862
856 873
856 1908
856 870
856 874
856 867
857 872
857 1183
857 1181
857 1182
857 1794
858 860
858 1196
858 928
858 930
858 871
858 859
859 1196
859 871
859 936
859 1183
859 860
859 1185
859 872
860 1196
860 871
860 865
860 1182
861 1908
861 874
861 1071
861 1054
861 873
861 1066
862 874
862 870
862 873
862 1908
863 1210
863 1221
863 914
863 1213
863 1204
863 1203
863 1217
863 1976
863 1209
863 1222
863 1224
863 1202
863 1215
863 896
863 1219
863 1201
863 1205
863 991
864 975
864 986
865 871
865 1196
865 934
865 944
866 886
866 869
866 991
866 1212
866 1221
866 892
866 1190
866 885
866 1215
867 870
867 873
868 1219
868 1254
868 896
868 1201
868 917
868 1284
868 912
868 1222
868 914
868 1290
868 1213
868 1281
868 1202
868 894
868 1274
868 1221
868 1210
868 1212
868 1205
868 1200
868 1671
868 879
868 991
868 885
868 977
868 979
868 1280
869 1215
869 1207
869 1221
869 886
869 1224
869 1190
869 1203
869 991
869 1214
869 1220
870 995
870 873
870 874
871 1196
871 934
871 944
871 1183
871 1185
872 1183
872 1185
872 1794
872 1196
873 874
873 1908
874 1908
875 891
875 882
875 898
875 1114
875 1139
875 1104
875 893
875 1143
875 1658
875 877
876 888
876 1744
876 1127
876 1107
876 878
876 877
877 893
877 880
877 888
877 878
877 1658
877 1107
878 893
878 880
878 1726
878 888
878 1723
878 1744
878 1463
878 1676
878 1751
879 979
879 1280
879 885
879 1671
879 994
879 1212
879 991
879 1284
879 1292
879 1281
879 894
879 977
879 1219
879 1254
880 893
880 884
880 1138
880 1658
880 1134
880 888
880 1676
881 1087
881 887
881 1176
881 897
882 898
882 891
882 1927
882 897
882 1466
882 1114
882 1104
882 1463
883 1003
883 1018
883 1010
883 895
883 1115
884 1138
884 1110
884 1134
884 1125
884 1658
884 893
885 1212
885 894
885 1280
885 1671
885 886
885 1281
885 979
886 1212
886 991
886 892
886 1188
886 1190
886 1192
887 1087
887 1176
887 897
887 1097
887 890
887 1192
887 1195
887 1246
888 1107
888 1127
888 1109
888 893
888 1744
889 1145
889 1115
889 1131
889 1112
889 1010
889 895
889 1126
889 1982
890 1097
890 1188
890 1176
890 1193
890 1192
890 1089
890 1091
890 1088
891 898
891 897
891 1114
891 1139
891 1104
891 1143
892 1190
892 991
892 978
892 1192
892 1188
892 1195
892 1462
892 1966
893 1658
893 1138
894 1212
894 1280
894 917
894 1671
894 1281
894 1254
894 1201
895 1115
895 1010
895 1145
895 1112
895 1544
896 1201
896 1219
896 1202
896 1222
896 917
896 1200
896 1205
896 1213
896 1254
896 1290
896 1284
896 1299
896 912
896 914
896 1217
896 977
896 1221
896 1210
896 1280
897 898
897 1927
897 1087
897 1075
898 1927
898 1114
898 1466
898 1104
899 1048
899 1931
899 1018
899 1006
899 1007
899 1010
899 1003
900 919
900 909
900 1627
900 918
900 906
900 911
900 1159
900 1590
900 915
900 1923
901 1167
901 908
901 920
901 1164
901 1068
901 1056
901 904
901 1051
901 1158
901 1069
901 1065
902 1172
902 924
902 903
902 1166
902 1150
902 921
902 916
902 1862
902 1151
902 911
902 1159
902 1725
902 1983
903 924
903 910
903 1059
903 1060
903 916
903 907
903 1051
903 1052
903 1055
903 1795
904 1164
904 1167
904 1068
904 1649
904 1800
905 1026
905 939
905 1061
905 1031
905 1488
905 1575
905 1649
905 1044
905 913
905 938
905 1045
906 915
906 909
906 918
906 919
907 1795
907 910
907 920
907 916
907 1051
907 1059
907 921
907 1052
908 1167
908 921
908 1150
908 916
908 920
908 1151
909 919
909 918
909 915
909 1627
909 911
909 1159
909 1590
909 1923
910 1059
910 1051
910 920
910 916
910 924
910 1052
910 1795
911 1057
911 919
911 924
911 1067
911 1559
911 1627
911 1639
911 1923
911 1983
912 1290
912 1270
912 1254
912 1299
912 917
912 1948
912 1281
912 1283
912 1285
912 1274
912 1276
912 1280
912 1201
912 1200
913 938
913 1053
913 941
913 1044
913 939
913 932
913 1160
913 923
913 1056
913 1061
913 1065
913 935
913 1045
913 1031
913 1026
913 1034
914 1213
914 1222
914 1201
914 1202
914 1219
914 1205
914 1210
914 1221
914 917
914 1284
914 1224
914 1204
914 1217
914 977
914 1212
914 1254
914 1200
914 991
915 918
915 919
915 1200
916 921
916 1150
916 920
916 1151
916 1051
916 1167
916 1172
917 1201
917 1290
917 1200
917 1222
917 1213
917 977
917 1219
917 1212
917 1280
917 1205
917 1202
917 1254
917 1284
918 919
918 1627
918 1159
919 1627
919 1057
919 1590
919 1923
920 1051
920 1069
920 921
920 1059
920 1150
920 1068
920 1167
920 922
921 1150
921 1151
921 1167
921 1172
921 1166
922 1069
922 1065
922 1058
922 1068
922 1063
922 923
922 941
922 1051
922 1056
922 1053
923 941
923 1065
923 1058
923 1053
923 938
923 1069
923 1068
923 1063
923 1056
923 1044
923 1160
924 1055
924 1060
924 1062
924 1059
924 1064
925 929
925 942
925 1471
925 947
925 985
925 1370
925 1402
926 948
926 940
926 1803
926 1794
926 1036
926 945
926 1696
926 1431
926 1509
927 933
927 1012
927 1023
927 1008
927 1009
927 1238
927 1000
927 1014
927 1017
927 946
927 980
927 1015
928 930
928 944
928 1854
929 942
929 947
929 1904
929 946
929 1370
930 945
931 943
931 1790
931 1043
931 940
931 949
931 1027
931 935
931 1389
931 1624
931 1803
932 1034
932 1053
932 1044
932 938
932 1045
932 935
932 949
932 1027
932 1031
932 1026
932 1061
932 1056
932 939
932 941
932 1160
933 1009
933 1238
933 1012
933 1008
933 1015
933 1023
933 946
933 1000
933 1001
933 1017
933 1904
933 980
933 947
934 937
934 944
934 1402
934 1854
935 949
935 1034
935 1027
935 1053
935 1056
935 1044
935 941
935 938
936 945
936 937
937 944
937 1370
937 1402
937 1854
938 1053
938 941
938 1044
938 1160
938 939
938 1034
938 1026
938 1061
938 1065
938 1056
938 1045
938 1031
939 1026
939 1061
939 1045
939 1031
939 1160
939 941
939 1053
939 1044
939 1034
940 943
940 1696
940 1790
940 1624
940 1043
940 1047
940 1036
940 948
940 1300
940 1389
940 1803
940 1856
941 1053
941 1044
941 1065
941 1056
941 1058
941 1063
941 1160
941 1068
941 1061
941 1069
941 1034
942 985
942 947
942 1080
942 1471
942 946
943 1790
943 1624
943 949
943 1043
943 1027
943 1389
943 1764
943 1803
944 1370
944 1854
945 948
946 947
946 980
946 1238
946 1009
946 1015
946 1904
946 989
946 1225
946 1080
947 980
947 1080
947 1471
947 1904
947 1009
947 1015
947 1225
947 1238
947 985
947 989
948 1794
948 1431
949 1027
949 1034
949 1053
949 1044
949 1038
949 1043
949 1624
949 1790
950 1646
950 968
950 953
950 973
951 964
951 971
951 973
951 954
951 958
951 967
951 974
951 956
951 953
952 1129
952 1184
952 1118
952 1120
952 1140
952 1128
952 1279
952 1124
952 1148
952 1137
952 1266
952 1244
952 1257
952 1179
952 1161
952 1174
952 1226
952 1162
952 957
952 970
953 967
953 968
953 954
953 973
953 956
953 965
953 958
953 971
953 972
953 963
954 973
954 967
954 956
954 968
954 965
954 958
954 964
954 971
954 963
954 1173
955 971
955 960
955 958
955 964
955 962
955 969
955 1519
955 1569
955 1574
955 1597
955 1999
956 965
956 973
956 967
956 972
956 1085
956 968
956 963
957 1162
957 1137
957 1279
957 1244
957 1148
957 1133
957 1273
957 1257
957 1100
957 1614
957 1835
957 1272
957 1289
957 970
957 959
957 1264
957 1266
957 1140
957 1184
958 971
958 964
958 967
958 973
958 974
959 1273
959 1278
959 1272
959 1261
959 1257
959 961
959 1177
959 1291
959 1298
959 1137
959 1264
959 1198
959 1266
959 1244
959 1140
959 1250
959 1133
959 1289
959 1279
959 1226
960 962
960 969
960 1174
960 974
960 1163
960 1120
960 1161
960 1519
961 1272
961 970
961 1261
961 1273
961 1643
961 1278
961 1137
961 1257
961 1162
962 969
962 1174
962 1163
962 974
962 1120
962 1171
963 965
963 967
963 1156
963 1085
963 968
963 1173
964 971
964 973
964 974
964 967
965 968
965 972
965 967
965 1173
965 973
965 1085
966 1169
966 1170
966 1163
966 974
966 1574
967 973
967 968
967 971
967 1173
968 973
969 1161
969 1171
969 970
969 1163
969 1574
970 1161
970 1162
970 1184
970 1244
970 1273
970 1279
970 1257
970 1272
970 1140
970 1120
970 1137
971 973
971 974
972 1646
972 973
972 1085
975 1094
975 986
976 984
976 1450
976 1243
976 1227
976 982
976 1096
976 1720
976 1959
977 1284
977 1219
977 1222
977 1202
977 994
977 1205
977 1254
977 991
977 1213
977 1285
977 1274
977 979
977 1210
977 1280
977 1201
978 1966
978 987
978 998
978 983
978 997
978 1242
978 1190
978 1239
978 1462
979 1280
979 1671
979 1281
979 994
979 1284
979 1292
979 1285
979 1219
979 1274
979 1212
979 1277
979 1254
980 989
980 1225
980 1922
980 1080
980 1009
980 1238
981 1535
981 999
981 996
982 1237
982 1243
982 1234
982 992
982 1227
982 984
983 990
983 987
983 998
983 995
983 988
983 997
983 993
983 1966
984 1450
984 1227
984 1243
984 999
984 1237
984 1234
985 1080
985 1079
985 989
985 992
985 1225
985 1096
987 1966
987 998
987 997
987 990
988 990
988 998
988 993
988 995
988 997
988 1965
989 1096
989 1225
989 1080
990 995
990 998
990 997
990 993
990 1966
991 1210
991 1976
991 1219
991 1221
991 1212
991 1284
991 1213
991 1202
991 1201
991 1222
992 1079
992 1096
992 1237
992 1084
992 1243
992 1829
992 1080
993 1965
993 997
993 998
993 1242
993 1955
994 1284
994 1262
994 1671
994 1277
994 1281
994 1274
994 1280
996 1450
996 999
997 1965
997 998
997 1242
997 1966
997 1239
997 1241
997 1247
998 1966
998 1242
998 1965
999 1227
999 1240
999 1234
999 1450
1000 1017
1000 1008
1000 1012
1000 1014
1000 1020
1000 1009
1000 1016
1000 1021
1000 1024
1000 1619
1000 1940
1001 1238
1001 1015
1001 1009
1001 1904
1001 1354
1001 1504
1001 1654
1001 1993
1002 1522
1002 1003
1002 1018
1002 1418
1002 1513
1002 1963
1003 1018
1003 1010
1003 1522
1004 1006
1004 1022
1004 1007
1004 1019
1004 1931
1004 1011
1004 1013
1004 1485
1004 1544
1004 1806
1005 1538
1005 1013
1005 1011
1005 1016
1005 1024
1005 1021
1005 1940
1005 1022
1005 1485
1005 1019
1005 1020
1005 1014
1005 1313
1005 1546
1006 1007
1006 1931
1006 1022
1006 1011
1006 1013
1006 1019
1006 1701
1007 1931
1007 1018
1007 1022
1007 1522
1007 1701
1008 1012
1008 1009
1008 1017
1008 1023
1008 1015
1008 1238
1008 1014
1008 1020
1008 1619
1009 1015
1009 1238
1009 1904
1009 1012
1009 1017
1009 1504
1009 1023
1010 1018
1010 1115
1010 1145
1011 1013
1011 1022
1011 1538
1011 1019
1011 1485
1011 1016
1011 1024
1011 1021
1011 1940
1012 1023
1012 1017
1012 1238
1012 1014
1012 1020
1012 1619
1012 1015
1013 1538
1013 1022
1013 1019
1013 1016
1013 1024
1013 1485
1013 1021
1013 1313
1013 1546
1013 1940
1014 1940
1014 1021
1014 1016
1014 1017
1014 1020
1014 1024
1014 1352
1014 1449
1014 1538
1014 1546
1014 1619
1014 1786
1015 1904
1015 1238
1015 1354
1015 1504
1016 1024
1016 1021
1016 1940
1016 1538
1016 1020
1016 1017
1016 1619
1016 1313
1016 1485
1016 1786
1017 1020
1017 1021
1017 1024
1018 1522
1018 1544
1019 1485
1019 1022
1019 1538
1019 1383
1019 1448
1019 1700
1019 1806
1020 1021
1020 1024
1020 1313
1020 1383
1020 1538
1020 1619
1020 1940
1021 1024
1021 1940
1021 1538
1021 1619
1021 1313
1021 1383
1021 1485
1022 1485
1022 1538
1022 1931
1022 1701
1022 1806
1023 1238
1023 1369
1023 1506
1023 1605
1024 1940
1024 1538
1024 1619
1024 1313
1024 1383
1024 1485
1024 1786
1025 1041
1025 1032
1025 1046
1025 1030
1025 1037
1025 1028
1025 1049
1025 1338
1025 1484
1025 1734
1025 1845
1026 1061
1026 1031
1026 1045
1026 1053
1026 1044
1026 1160
1026 1034
1027 1034
1027 1045
1027 1038
1027 1039
1027 1624
1028 1033
1028 1037
1028 1049
1028 1040
1028 1032
1028 1041
1028 1425
1028 1436
1028 1579
1029 1631
1029 1623
1029 1843
1029 1040
1029 1436
1029 1453
1029 1579
1030 1046
1030 1041
1030 1032
1030 1035
1030 1036
1030 1037
1030 1338
1030 1484
1030 1731
1030 1734
1030 1845
1031 1061
1031 1045
1031 1053
1031 1044
1031 1034
1032 1041
1032 1046
1032 1037
1032 1845
1032 1049
1032 1338
1032 1734
1032 1751
1033 1037
1033 1049
1033 1040
1033 1579
1033 1436
1033 1751
1033 1853
1034 1053
1034 1044
1034 1061
1034 1056
1034 1045
1035 1036
1035 1046
1035 1039
1035 1047
1035 1042
1035 1481
1035 1484
1035 1731
1035 1734
1036 1696
1036 1047
1036 1046
1036 1042
1036 1043
1036 1041
1036 1300
1037 1041
1037 1049
1037 1046
1037 1484
1037 1853
1038 1039
1038 1043
1038 1481
1038 1573
1038 1611
1038 1721
1038 1749
1039 1043
1039 1047
1039 1481
1039 1721
1040 1049
1040 1425
1040 1843
1040 1631
1040 1483
1040 1579
1041 1046
1041 1484
1041 1734
1041 1845
1042 1047
1042 1696
1042 1300
1042 1043
1042 1501
1042 1558
1042 1573
1042 1749
1042 1856
1042 1979
1043 1047
1043 1300
1043 1696
1044 1053
1044 1061
1044 1056
1044 1158
1044 1045
1044 1065
1044 1160
1045 1061
1045 1053
1045 1160
1046 1845
1046 1300
1046 1338
1046 1731
1046 1734
1047 1696
1047 1300
1047 1558
1047 1573
1047 1856
1047 1979
1049 1425
1049 1483
1049 1579
1049 1726
1049 1751
1050 1066
1050 1216
1050 1529
1050 1218
1050 1211
1051 1069
1051 1059
1051 1068
1052 1795
1052 1073
1052 1059
1052 1062
1052 1060
1052 1509
1052 1803
1052 1832
1053 1056
1053 1065
1053 1068
1053 1061
1053 1069
1053 1160
1054 1070
1054 1057
1054 1910
1055 1062
1055 1067
1055 1072
1055 1073
1055 1060
1055 1064
1055 1627
1056 1065
1056 1068
1056 1069
1056 1158
1056 1164
1057 1067
1057 1064
1057 1072
1057 1070
1057 1559
1057 1639
1058 1065
1058 1068
1058 1069
1058 1063
1058 1859
1059 1060
1059 1795
1059 1832
1060 1064
1060 1062
1060 1072
1060 1073
1060 1832
1061 1783
1062 1072
1062 1073
1062 1064
1062 1067
1062 1070
1062 1509
1062 1795
1063 1069
1063 1065
1063 1790
1063 1803
1064 1072
1064 1073
1064 1067
1064 1070
1064 1509
1064 1832
1065 1068
1065 1069
1065 1164
1066 1211
1066 1071
1066 1206
1066 1208
1066 1214
1066 1216
1066 1220
1067 1072
1067 1073
1067 1070
1067 1590
1067 1627
1068 1069
1068 1164
1070 1072
1070 1073
1070 1509
1071 1208
1071 1206
1071 1211
1071 1214
1071 1216
1071 1207
1071 1220
1072 1073
1072 1509
1073 1795
1073 1509
1073 1832
1074 1529
1074 1644
1074 1206
1075 1088
1075 1095
1075 1927
1075 1466
1076 1078
1076 1082
1076 1092
1076 1535
1077 1090
1077 1098
1077 1971
1077 1091
1077 1093
1078 1082
1078 1092
1078 1535
1079 1084
1079 1080
1079 1829
1079 1096
1080 1096
1080 1225
1081 1089
1081 1099
1081 1091
1081 1093
1081 1193
1082 1094
1082 1535
1083 1086
1083 1085
1083 1165
1083 1971
1083 1156
1085 1086
1087 1176
1088 1095
1088 1097
1088 1927
1089 1091
1089 1093
1089 1099
1089 1097
1089 1193
1089 1090
1090 1098
1090 1971
1090 1091
1090 1093
1091 1093
1091 1099
1092 1535
1092 1232
1093 1098
1093 1099
1094 1175
1094 1182
1095 1097
1095 1927
1096 1225
1096 1248
1097 1176
1097 1193
1097 1188
1097 1192
1097 1195
1099 1193
1100 1148
1100 1124
1100 1128
1100 1476
1100 1819
1100 1835
1100 1279
1101 1342
1101 1143
1101 1144
1101 1139
1101 1104
1101 1114
1101 1444
1101 1875
1102 1122
1102 1147
1102 1434
1102 1130
1102 1491
1102 1813
1102 1980
1103 1135
1103 1526
1103 1111
1103 1141
1103 1106
1103 1980
1103 1393
1103 1782
1104 1114
1104 1139
1104 1143
1104 1138
1104 1342
1105 1117
1105 1189
1105 1136
1105 1123
1105 1118
1105 1124
1105 1413
1105 1819
1106 1141
1106 1135
1106 1111
1106 1444
1106 1492
1106 1530
1106 1782
1106 1914
1106 1978
1107 1116
1107 1109
1107 1113
1107 1127
1107 1132
1107 1121
1107 1347
1107 1448
1108 1142
1108 1119
1108 1116
1108 1109
1109 1116
1109 1127
1109 1142
1109 1113
1109 1121
1109 1972
1110 1138
1110 1125
1110 1134
1110 1146
1110 1149
1110 1936
1111 1141
1111 1135
1111 1914
1111 1444
1112 1115
1112 1131
1112 1126
1112 1145
1112 1325
1112 1362
1112 1541
1112 1630
1112 1982
1113 1121
1113 1972
1113 1116
1113 1132
1113 1149
1113 1347
1113 1127
1113 1936
1114 1139
1114 1143
1114 1138
1114 1342
1114 1658
1114 1875
1115 1145
1115 1131
1115 1325
1115 1126
1116 1142
1116 1972
1116 1127
1116 1121
1116 1347
1116 1448
1117 1136
1117 1130
1117 1180
1117 1123
1117 1228
1118 1124
1118 1128
1118 1129
1118 1120
1118 1140
1118 1819
1118 1148
1118 1266
1118 1279
1118 1189
1118 1244
1118 1184
1118 1179
1119 1142
1120 1129
1120 1184
1120 1174
1120 1140
1120 1161
1120 1124
1120 1128
1120 1189
1120 1244
1120 1257
1120 1171
1120 1179
1120 1163
1120 1266
1120 1279
1120 1226
1121 1972
1121 1127
1121 1149
1121 1132
1121 1936
1121 1532
1121 1676
1121 1873
1122 1147
1122 1130
1122 1136
1122 1434
1122 1813
1123 1130
1123 1491
1123 1519
1123 1961
1124 1128
1124 1129
1124 1148
1124 1179
1124 1413
1124 1819
1124 1279
1124 1140
1124 1184
1125 1149
1125 1134
1125 1132
1125 1138
1125 1146
1125 1658
1125 1911
1125 1936
1126 1131
1126 1630
1127 1676
1128 1129
1128 1184
1128 1413
1128 1819
1128 1835
1128 1961
1128 1148
1128 1279
1128 1140
1129 1184
1129 1140
1129 1161
1129 1174
1129 1189
1129 1244
1129 1226
1129 1179
1129 1266
1129 1279
1130 1136
1130 1434
1130 1491
1130 1813
1131 1630
1131 1145
1132 1149
1132 1134
1132 1658
1132 1347
1132 1972
1132 1398
1132 1448
1133 1264
1133 1137
1133 1266
1133 1273
1133 1244
1133 1257
1133 1279
1133 1148
1133 1289
1133 1291
1133 1250
1133 1177
1133 1179
1133 1226
1133 1162
1133 1272
1133 1140
1134 1138
1134 1149
1134 1658
1134 1146
1134 1347
1134 1875
1135 1141
1135 1914
1135 1526
1135 1782
1136 1228
1136 1249
1137 1273
1137 1257
1137 1244
1137 1266
1137 1279
1137 1148
1137 1162
1137 1264
1137 1272
1137 1291
1137 1226
1137 1140
1137 1261
1137 1278
1137 1250
1137 1184
1137 1177
1137 1179
1137 1289
1138 1658
1138 1146
1138 1149
1139 1143
1139 1342
1139 1144
1139 1444
1139 1658
1139 1875
1140 1266
1140 1279
1140 1244
1140 1179
1140 1184
1140 1226
1140 1257
1140 1250
1140 1162
1140 1289
1140 1161
1140 1174
1140 1273
1140 1148
1140 1264
1140 1189
1141 1914
1141 1444
1143 1342
1143 1444
1143 1670
1143 1875
1144 1342
1144 1146
1144 1422
1144 1474
1144 1911
1144 1978
1145 1325
1145 1362
1145 1982
1146 1149
1146 1422
1146 1474
1146 1911
1147 1434
1147 1813
1147 1914
1148 1279
1148 1266
1148 1244
1148 1273
1148 1264
1148 1257
1148 1184
1148 1226
1148 1162
1148 1179
1148 1289
1149 1347
1149 1658
1149 1972
1150 1151
1150 1167
1150 1172
1150 1166
1151 1166
1151 1172
1151 1155
1153 1154
1153 1426
1153 1159
1153 1157
1153 1877
1154 1426
1154 1159
1154 1157
1155 1166
1155 1172
1155 1862
1155 1159
1156 1165
1156 1359
1156 1447
1157 1359
1157 1447
1157 1551
1157 1686
1157 1725
1157 1877
1158 1721
1158 1783
1159 1627
1160 1410
1161 1184
1161 1171
1161 1174
1161 1279
1161 1226
1161 1162
1161 1244
1161 1257
1162 1244
1162 1279
1162 1614
1162 1835
1162 1257
1162 1184
1162 1273
1162 1266
1162 1272
1163 1171
1163 1174
1163 1169
1163 1199
1163 1170
1163 1180
1163 1226
1164 1167
1164 1649
1164 1800
1165 1359
1165 1426
1165 1667
1165 1877
1166 1172
1166 1862
1167 1800
1167 1939
1168 1415
1168 1740
1168 1943
1169 1170
1169 1171
1169 1275
1169 1258
1169 1199
1169 1943
1170 1275
1170 1258
1170 1251
1170 1171
1170 1943
1170 1199
1170 1296
1171 1174
1171 1226
1171 1261
1172 1862
1173 1415
1173 1740
1174 1199
1174 1189
1174 1180
1174 1184
1174 1226
1175 1182
1175 1181
1176 1192
1176 1188
1176 1195
1176 1190
1176 1193
1176 1246
1177 1291
1177 1278
1177 1264
1177 1273
1177 1298
1177 1319
1177 1244
1177 1257
1177 1250
1177 1289
1177 1266
1177 1272
1177 1261
1178 1231
1178 1236
1178 1230
1178 1245
1178 1235
1178 1194
1178 1252
1178 1228
1178 1197
1178 1249
1179 1226
1179 1266
1179 1289
1179 1189
1179 1279
1179 1244
1179 1257
1179 1250
1179 1184
1180 1191
1180 1199
1180 1189
1180 1187
1180 1249
1181 1182
1183 1185
1183 1794
1183 1196
1184 1244
1184 1266
1184 1257
1184 1279
1184 1226
1185 1196
1186 1197
1186 1187
1186 1287
1186 1292
1186 1194
1187 1197
1187 1191
1187 1199
1187 1249
1188 1192
1188 1193
1188 1190
1188 1195
1189 1191
1189 1226
1189 1199
1190 1192
1190 1195
1191 1199
1191 1249
1191 1228
1192 1193
1192 1195
1192 1246
1193 1194
1193 1195
1194 1197
1194 1231
1194 1236
1194 1195
1194 1230
1194 1245
1195 1246
1195 1231
1195 1247
1197 1249
1197 1231
1198 1298
1198 1278
1198 1261
1198 1295
1198 1250
1198 1815
1198 1269
1198 1294
1198 1395
1198 1769
1198 1909
1199 1258
1200 1201
1200 1205
1200 1213
1200 1290
1200 1798
1200 1217
1200 1224
1201 1213
1201 1219
1201 1202
1201 1205
1201 1222
1201 1284
1201 1290
1201 1224
1201 1217
1201 1221
1201 1210
1201 1212
1201 1280
1201 1254
1202 1222
1202 1219
1202 1213
1202 1205
1202 1210
1202 1204
1202 1254
1202 1284
1202 1290
1202 1217
1202 1221
1203 1209
1203 1207
1203 1204
1203 1976
1203 1216
1203 1218
1203 1220
1203 1224
1203 1215
1203 1217
1203 1210
1203 1214
1203 1221
1203 1223
1204 1217
1204 1210
1204 1976
1204 1213
1204 1221
1204 1205
1204 1218
1204 1209
1205 1213
1205 1217
1205 1222
1205 1798
1205 1254
1205 1290
1205 1224
1205 1219
1205 1221
1205 1210
1206 1208
1206 1214
1206 1216
1206 1207
1206 1220
1207 1214
1207 1220
1207 1215
1207 1221
1207 1216
1207 1218
1207 1209
1207 1224
1207 1208
1208 1220
1208 1214
1208 1216
1209 1218
1209 1223
1209 1220
1209 1211
1209 1224
1209 1215
1209 1217
1209 1221
1209 1214
1209 1216
1210 1976
1210 1222
1210 1284
1210 1213
1210 1217
1210 1219
1210 1221
1211 1223
1211 1220
1211 1214
1211 1218
1212 1280
1212 1254
1212 1219
1213 1222
1213 1217
1213 1221
1213 1290
1213 1224
1213 1219
1213 1254
1213 1284
1214 1220
1214 1215
1214 1223
1214 1216
1214 1218
1214 1224
1215 1224
1215 1221
1215 1220
1215 1223
1216 1223
1216 1218
1216 1220
1217 1224
1217 1798
1217 1218
1217 1222
1217 1221
1217 1223
1218 1223
1218 1220
1219 1222
1219 1284
1219 1280
1219 1290
1219 1221
1219 1254
1220 1223
1220 1224
1220 1221
1221 1224
1221 1222
1221 1976
1222 1284
1222 1290
1222 1254
1223 1224
1225 1248
1226 1250
1226 1289
1226 1266
1226 1269
1226 1244
1226 1257
1226 1295
1226 1279
1226 1278
1226 1273
1227 1243
1227 1240
1227 1234
1227 1237
1227 1232
1228 1249
1228 1245
1228 1230
1228 1231
1228 1235
1228 1467
1229 1371
1229 1232
1229 1233
1229 1468
1229 1486
1229 1793
1229 1919
1230 1231
1230 1245
1230 1236
1230 1235
1230 1249
1230 1252
1230 1363
1230 1467
1230 1690
1230 1741
1230 1849
1231 1236
1231 1245
1231 1235
1231 1363
1232 1240
1232 1234
1232 1486
1233 1241
1233 1371
1233 1247
1233 1239
1233 1246
1233 1242
1233 1965
1233 1567
1233 1670
1233 1793
1233 1919
1234 1237
1234 1243
1234 1240
1235 1245
1235 1236
1235 1252
1235 1262
1235 1249
1235 1363
1235 1467
1235 1690
1235 1741
1235 1849
1236 1245
1236 1252
1236 1363
1236 1462
1236 1690
1236 1741
1237 1243
1238 1904
1239 1247
1239 1241
1239 1242
1239 1246
1239 1371
1239 1965
1239 1966
1239 1462
1240 1243
1241 1247
1241 1371
1241 1242
1241 1965
1241 1246
1241 1793
1242 1965
1242 1247
1242 1966
1242 1371
1242 1246
1242 1462
1244 1279
1244 1257
1244 1266
1244 1273
1244 1289
1244 1272
1244 1264
1244 1250
1245 1249
1245 1252
1245 1363
1245 1467
1245 1690
1245 1849
1246 1247
1246 1371
1246 1462
1247 1371
1247 1965
1247 1462
1248 1352
1248 1829
1249 1252
1249 1652
1250 1269
1250 1289
1250 1295
1250 1298
1250 1278
1250 1273
1250 1266
1250 1257
1250 1261
1251 1275
1251 1296
1251 1258
1251 1271
1251 1260
1251 1259
1251 1943
1251 1297
1251 1267
1251 1293
1251 1288
1251 1294
1251 1815
1251 1268
1252 1287
1252 1277
1252 1292
1252 1262
1252 1582
1253 1263
1253 1277
1253 1285
1253 1265
1253 1274
1253 1276
1253 1282
1253 1283
1253 1262
1253 1582
1253 1292
1253 1281
1253 1287
1253 1255
1253 1268
1254 1290
1254 1270
1254 1280
1254 1284
1254 1299
1254 1671
1254 1281
1254 1283
1254 1285
1254 1274
1254 1276
1255 1267
1255 1287
1255 1268
1255 1283
1255 1282
1255 1263
1255 1292
1255 1297
1255 1270
1255 1285
1255 1274
1255 1265
1255 1271
1255 1296
1255 1293
1255 1288
1255 1277
1255 1281
1256 1260
1256 1259
1256 1295
1256 1286
1256 1288
1256 1815
1256 1293
1256 1294
1256 1503
1256 1297
1256 1296
1256 1269
1256 1271
1257 1266
1257 1273
1257 1279
1257 1289
1257 1278
1257 1264
1257 1261
1257 1291
1257 1272
1258 1275
1258 1296
1258 1271
1258 1293
1258 1260
1258 1943
1258 1259
1259 1260
1259 1288
1259 1297
1259 1815
1259 1296
1259 1294
1259 1271
1259 1293
1259 1268
1259 1275
1259 1395
1259 1753
1259 1265
1259 1267
1259 1282
1260 1288
1260 1296
1260 1815
1260 1297
1260 1271
1260 1293
1260 1294
1260 1275
1260 1395
1260 1268
1260 1295
1260 1267
1260 1282
1261 1278
1261 1298
1261 1769
1261 1272
1261 1273
1262 1277
1262 1582
1262 1265
1262 1741
1263 1282
1263 1265
1263 1268
1263 1277
1263 1283
1263 1285
1263 1274
1263 1276
1263 1582
1263 1293
1263 1297
1263 1288
1263 1292
1263 1281
1263 1287
1263 1267
1263 1270
1264 1273
1264 1289
1264 1291
1264 1279
1264 1272
1264 1266
1265 1282
1265 1288
1265 1277
1265 1268
1265 1297
1265 1582
1265 1293
1265 1283
1265 1285
1265 1274
1265 1287
1266 1279
1266 1289
1266 1273
1267 1268
1267 1297
1267 1282
1267 1288
1267 1296
1267 1293
1267 1271
1267 1287
1267 1275
1267 1292
1267 1283
1268 1282
1268 1297
1268 1288
1268 1283
1268 1296
1268 1287
1268 1271
1268 1277
1268 1293
1269 1295
1269 1286
1269 1815
1269 1298
1269 1289
1270 1283
1270 1274
1270 1290
1270 1281
1270 1285
1270 1299
1270 1276
1270 1948
1270 1292
1270 1280
1270 1671
1270 1277
1271 1296
1271 1293
1271 1275
1271 1288
1271 1297
1271 1287
1271 1282
1272 1273
1272 1291
1272 1643
1272 1278
1273 1291
1273 1279
1273 1289
1273 1278
1274 1285
1274 1283
1274 1277
1274 1281
1274 1276
1274 1299
1274 1282
1274 1671
1274 1284
1274 1290
1274 1292
1274 1280
1275 1296
1275 1943
1275 1293
1275 1294
1275 1297
1275 1288
1276 1285
1276 1299
1276 1283
1276 1277
1276 1753
1276 1948
1276 1282
1276 1290
1277 1285
1277 1292
1277 1283
1277 1287
1277 1582
1277 1671
1277 1281
1277 1282
1278 1298
1278 1769
1278 1289
1278 1291
1279 1289
1280 1281
1280 1671
1280 1285
1280 1284
1280 1290
1280 1292
1280 1283
1281 1671
1281 1292
1281 1283
1281 1285
1281 1284
1281 1290
1281 1287
1282 1297
1282 1288
1282 1753
1282 1293
1282 1283
1282 1296
1282 1285
1282 1287
1283 1285
1283 1292
1283 1290
1283 1287
1283 1671
1283 1299
1284 1671
1284 1290
1284 1285
1285 1299
1285 1290
1285 1292
1286 1503
1286 1295
1286 1378
1286 1652
1287 1292
1287 1293
1287 1288
1287 1296
1287 1297
1288 1297
1288 1293
1288 1296
1288 1294
1289 1291
1289 1298
1290 1299
1290 1948
1291 1319
1291 1643
1291 1988
1292 1671
1293 1296
1293 1297
1294 1815
1294 1395
1294 1297
1294 1753
1294 1769
1294 1909
1295 1298
1295 1395
1295 1815
1296 1297
1297 1753
1298 1395
1298 1769
1298 1909
1299 1828
1299 1948
1300 1696
1300 1501
1300 1558
1300 1856
1300 1979
1301 1775
1301 1647
1301 1685
1301 1439
1301 1517
1301 1816
1301 1903
1301 1406
1301 1890
1301 1405
1301 1457
1301 1440
1301 1465
1301 1572
1301 1755
1301 1861
1301 1951
1302 1797
1302 1346
1302 1343
1302 1961
1302 1413
1302 1683
1302 1819
1302 1694
1302 1476
1302 1835
1302 1805
1303 1341
1303 1412
1303 1964
1303 1420
1303 1836
1303 1682
1303 1520
1303 1867
1303 1992
1303 1771
1303 1872
1303 1327
1303 1380
1304 1689
1304 1960
1304 1666
1304 1507
1304 1752
1304 1384
1304 1566
1304 1360
1304 1390
1304 1784
1304 1315
1304 1409
1305 1472
1305 1523
1305 1947
1305 1767
1305 1596
1305 1310
1305 1827
1305 1890
1305 1673
1305 1766
1305 1443
1305 1439
1306 1461
1306 1589
1306 1677
1306 1925
1306 1561
1306 1763
1306 1367
1306 1735
1306 1879
1306 1777
1306 1814
1306 1459
1306 1651
1307 1600
1307 1635
1307 1990
1307 1601
1307 1818
1307 1924
1307 1887
1307 1738
1307 1928
1307 1594
1307 1717
1307 1847
1307 1407
1307 1411
1307 1748
1307 1876
1307 1994
1308 1995
1308 1756
1308 1424
1308 1975
1308 1349
1308 1973
1308 1857
1308 1591
1308 1477
1308 1575
1308 1894
1308 1874
1308 1942
1309 1781
1309 1821
1309 1616
1309 1353
1309 1534
1309 1493
1309 1987
1309 1974
1309 1431
1309 1645
1309 1368
1309 1454
1309 1945
1310 1947
1310 1441
1310 1809
1310 1540
1310 1472
1310 1673
1310 1523
1310 1767
1310 1596
1310 1443
1310 1718
1310 1766
1310 1827
1310 1890
1311 1588
1311 1346
1311 1713
1311 1805
1311 1343
1311 1614
1311 1727
1311 1823
1312 1620
1312 1380
1312 1402
1312 1781
1312 1771
1312 1354
1312 1504
1312 1872
1312 1854
1312 1353
1312 1821
1313 1701
1313 1370
1313 1619
1313 1563
1313 1557
1313 1364
1313 1576
1313 1993
1314 1725
1314 1891
1314 1983
1314 1564
1314 1686
1314 1862
1314 1923
1314 1447
1314 1357
1315 1566
1315 1577
1315 1360
1315 1801
1315 1351
1315 1893
1315 1778
1315 1733
1315 1689
1315 1505
1315 1316
1315 1507
1315 1864
1316 1733
1316 1505
1316 1433
1316 1577
1316 1935
1316 1757
1316 1893
1316 1351
1316 1517
1316 1405
1316 1801
1316 1492
1316 1567
1316 1889
1316 1903
1317 1991
1317 1892
1317 1661
1317 1502
1317 1754
1317 1906
1317 1594
1317 1887
1317 1994
1317 1818
1317 1990
1317 1516
1317 1407
1317 1515
1317 1528
1317 1628
1317 1747
1317 1838
1317 1842
1318 1968
1318 1679
1318 1934
1318 1334
1318 1996
1318 1742
1318 1496
1318 1660
1318 1680
1318 1779
1318 1802
1318 1946
1319 1988
1319 1643
1319 1713
1319 1385
1319 1823
1319 1909
1320 1333
1320 1950
1320 1946
1320 1497
1320 1729
1320 1779
1320 1846
1320 1514
1320 1897
1320 1697
1320 1399
1320 1881
1320 1586
1321 1732
1321 1571
1321 1459
1321 1480
1321 1469
1321 1656
1321 1967
1321 1970
1321 1879
1321 1638
1321 1691
1321 1367
1321 1926
1322 1702
1322 1458
1322 1718
1322 1570
1322 1695
1322 1629
1322 1809
1322 1621
1322 1348
1322 1664
1322 1392
1322 1673
1322 1414
1322 1441
1322 1490
1323 1605
1323 1506
1323 1449
1323 1593
1323 1352
1323 1332
1323 1460
1323 1826
1324 1976
1324 1885
1325 1982
1325 1362
1325 1500
1325 1475
1325 1541
1325 1633
1325 1820
1325 1954
1326 1746
1326 1456
1326 1953
1326 1988
1326 1476
1326 1385
1326 1730
1326 1788
1326 1796
1326 1930
1327 1379
1327 1682
1327 1836
1327 1382
1327 1992
1327 1724
1327 1412
1327 1584
1327 1341
1327 1420
1328 1608
1328 1393
1328 1839
1328 1532
1328 1751
1328 1432
1328 1338
1328 1804
1328 1873
1328 1581
1328 1936
1328 1932
1328 1487
1328 1896
1329 1956
1329 1498
1329 1555
1329 1898
1329 1675
1329 1937
1329 1618
1329 1355
1329 1828
1329 1773
1329 1909
1329 1753
1329 1508
1329 1542
1330 1373
1330 1417
1330 1938
1330 1912
1330 1452
1330 1954
1330 1640
1330 1336
1330 1626
1330 1386
1330 1429
1330 1451
1330 1811
1331 1406
1331 1391
1331 1816
1331 1685
1331 1736
1331 1801
1331 1440
1331 1775
1331 1339
1331 1540
1331 1443
1331 1517
1331 1405
1331 1439
1331 1505
1332 1724
1332 1826
1332 1665
1332 1610
1332 1860
1332 1850
1332 1414
1332 1379
1332 1587
1332 1855
1333 1950
1333 1946
1333 1497
1333 1779
1333 1897
1333 1729
1333 1514
1333 1846
1333 1429
1333 1968
1333 1881
1334 1996
1334 1679
1334 1802
1334 1968
1334 1496
1334 1934
1334 1531
1334 1660
1334 1846
1335 1345
1335 1700
1335 1549
1335 1361
1335 1817
1335 1806
1335 1448
1335 1554
1335 1662
1335 1831
1335 1525
1335 1901
1335 1587
1335 1706
1335 1855
1336 1417
1336 1907
1336 1811
1336 1419
1336 1626
1336 1699
1336 1373
1336 1938
1336 1822
1336 1640
1336 1902
1336 1578
1336 1595
1336 1693
1336 1865
1336 1878
1337 1488
1337 1575
1337 1688
1337 1762
1337 1438
1337 1580
1337 1759
1337 1894
1337 1895
1337 1942
1338 1751
1338 1463
1338 1845
1338 1734
1338 1726
1338 1579
1338 1731
1338 1676
1338 1532
1339 1712
1339 1409
1339 1384
1339 1391
1339 1801
1339 1702
1339 1664
1339 1689
1339 1540
1339 1837
1339 1443
1339 1490
1339 1666
1340 1615
1340 1599
1340 1515
1340 1428
1340 1521
1340 1465
1340 1714
1340 1799
1340 1985
1340 1585
1340 1547
1340 1528
1340 1457
1341 1412
1341 1964
1341 1420
1341 1836
1341 1867
1341 1520
1341 1682
1341 1992
1341 1872
1341 1771
1342 1444
1342 1978
1343 1346
1343 1727
1343 1805
1343 1981
1343 1588
1343 1614
1343 1835
1343 1632
1344 1709
1344 1772
1344 1915
1344 1388
1344 1707
1344 1840
1344 1728
1344 1368
1344 1508
1344 1719
1345 1710
1345 1817
1345 1831
1345 1525
1345 1500
1345 1633
1345 1475
1345 1554
1345 1609
1345 1404
1345 1806
1345 1361
1345 1398
1345 1700
1345 1706
1345 1855
1345 1929
1346 1805
1346 1727
1346 1588
1346 1981
1346 1614
1346 1476
1346 1797
1347 1972
1347 1398
1347 1404
1347 1448
1347 1550
1347 1807
1348 1673
1348 1809
1348 1766
1348 1570
1348 1629
1348 1443
1348 1947
1348 1596
1348 1490
1348 1458
1348 1702
1348 1523
1348 1837
1349 1857
1349 1995
1349 1591
1349 1975
1349 1973
1349 1372
1349 1756
1349 1962
1349 1424
1349 1926
1349 1874
1350 1512
1350 1692
1350 1663
1350 1511
1350 1653
1350 1437
1350 1416
1350 1543
1350 1381
1350 1366
1350 1430
1350 1852
1350 1556
1350 1684
1350 1830
1351 1577
1351 1733
1351 1893
1351 1566
1351 1757
1351 1360
1351 1864
1351 1405
1351 1935
1351 1778
1352 1449
1352 1708
1352 1593
1352 1829
1352 1361
1352 1460
1352 1700
1353 1821
1353 1616
1353 1781
1353 1974
1353 1645
1353 1787
1353 1620
1353 1872
1353 1493
1353 1534
1353 1394
1353 1454
1353 1455
1354 1504
1354 1904
1354 1654
1354 1364
1354 1380
1354 1401
1354 1402
1354 1563
1354 1620
1354 1771
1354 1993
1355 1788
1355 1498
1355 1385
1355 1397
1355 1618
1355 1675
1355 1773
1355 1715
1355 1539
1355 1503
1355 1555
1355 1542
1355 1898
1355 1956
1355 1958
1356 1876
1356 1365
1356 1896
1356 1924
1356 1432
1356 1870
1356 1838
1356 1818
1356 1594
1356 1606
1356 1906
1356 1635
1356 1847
1357 1564
1357 1851
1357 1859
1357 1895
1357 1774
1357 1688
1357 1983
1357 1762
1358 1607
1358 1365
1358 1482
1358 1403
1358 1547
1358 1881
1358 1876
1358 1897
1358 1906
1358 1924
1358 1870
1358 1594
1359 1447
1359 1551
1359 1686
1359 1877
1359 1918
1360 1566
1360 1577
1360 1736
1360 1507
1360 1778
1360 1405
1360 1689
1360 1733
1360 1864
1361 1554
1361 1806
1361 1700
1361 1855
1361 1568
1361 1449
1361 1665
1361 1901
1361 1587
1361 1460
1361 1706
1362 1500
1362 1982
1362 1541
1362 1807
1362 1398
1362 1404
1362 1475
1362 1633
1362 1806
1362 1820
1362 1844
1363 1849
1363 1741
1363 1690
1363 1545
1363 1462
1363 1467
1363 1952
1363 1397
1363 1784
1363 1833
1364 1563
1364 1993
1364 1401
1364 1584
1364 1634
1364 1576
1364 1786
1364 1771
1364 1619
1364 1504
1365 1876
1365 1870
1365 1924
1365 1607
1365 1906
1365 1594
1365 1881
1365 1818
1365 1933
1365 1873
1365 1403
1366 1430
1366 1848
1366 1376
1366 1663
1366 1553
1366 1381
1366 1653
1366 1531
1366 1512
1366 1963
1366 1513
1366 1416
1366 1655
1366 1852
1367 1925
1367 1777
1367 1461
1367 1435
1367 1638
1367 1469
1367 1583
1367 1581
1367 1459
1367 1732
1367 1932
1367 1442
1367 1589
1368 1840
1368 1423
1368 1493
1368 1915
1368 1644
1368 1812
1368 1454
1368 1534
1369 1922
1369 1506
1369 1605
1369 1637
1369 1921
1369 1959
1370 1854
1370 1504
1370 1402
1370 1563
1370 1576
1371 1965
1371 1468
1371 1793
1372 1962
1372 1591
1372 1973
1372 1561
1372 1857
1372 1763
1372 1879
1372 1642
1372 1477
1372 1814
1372 1756
1372 1589
1372 1735
1372 1874
1372 1995
1373 1417
1373 1938
1373 1912
1373 1452
1373 1954
1373 1640
1373 1386
1373 1429
1373 1626
1373 1451
1373 1693
1373 1811
1373 1822
1374 1548
1374 1565
1374 1678
1374 1668
1374 1913
1374 1984
1374 1622
1374 1761
1374 1997
1374 1501
1374 1573
1374 1692
1375 1905
1375 1597
1375 1770
1375 1745
1375 1569
1375 1650
1375 1494
1375 1743
1375 1999
1375 1883
1375 1989
1376 1852
1376 1453
1376 1848
1376 1663
1376 1531
1376 1802
1376 1996
1376 1430
1376 1653
1376 1623
1376 1512
1377 1681
1377 1680
1377 1949
1377 1825
1377 1841
1377 1760
1377 1537
1377 1739
1377 1941
1377 1660
1377 1742
1378 1652
1378 1510
1378 1503
1378 1467
1378 1952
1379 1382
1379 1724
1379 1682
1379 1992
1379 1836
1379 1584
1380 1620
1380 1771
1380 1964
1380 1401
1380 1402
1380 1872
1380 1654
1380 1504
1381 1653
1381 1655
1381 1512
1381 1430
1381 1663
1381 1531
1381 1553
1381 1963
1381 1513
1381 1416
1381 1848
1381 1511
1381 1543
1381 1692
1381 1739
1381 1841
1382 1584
1382 1634
1382 1786
1382 1992
1382 1654
1382 1401
1383 1708
1383 1485
1383 1829
1383 1700
1384 1689
1384 1666
1384 1409
1384 1712
1384 1390
1384 1837
1384 1801
1384 1736
1384 1490
1384 1986
1384 1784
1384 1833
1384 1960
1385 1539
1385 1788
1385 1746
1385 1988
1385 1675
1385 1796
1385 1542
1385 1446
1385 1823
1385 1930
1385 1958
1386 1912
1386 1452
1386 1451
1386 1429
1386 1968
1386 1950
1386 1552
1387 1774
1387 1859
1387 1832
1387 1564
1387 1639
1387 1910
1387 1559
1387 1863
1387 1957
1387 1983
1387 1499
1387 1421
1387 1674
1387 1810
1387 1866
1387 1977
1388 1719
1388 1709
1388 1772
1388 1508
1388 1789
1388 1750
1388 1915
1388 1768
1388 1669
1389 1624
1389 1764
1389 1790
1389 1803
1389 1431
1389 1558
1389 1856
1390 1784
1390 1986
1390 1833
1390 1960
1390 1545
1390 1752
1390 1689
1390 1715
1390 1849
1390 1712
1390 1598
1390 1666
1391 1406
1391 1816
1391 1540
1391 1685
1391 1440
1391 1664
1391 1525
1391 1775
1391 1817
1391 1801
1391 1441
1391 1736
1392 1621
1392 1998
1392 1414
1392 1458
1392 1695
1392 1882
1392 1570
1392 1629
1392 1702
1392 1427
1392 1592
1393 1804
1393 1782
1393 1839
1393 1659
1393 1608
1393 1526
1393 1980
1393 1432
1393 1916
1394 1945
1394 1645
1394 1454
1394 1534
1394 1616
1394 1977
1394 1787
1394 1617
1394 1821
1394 1674
1394 1863
1395 1815
1395 1769
1395 1753
1395 1909
1396 1989
1396 1869
1396 1883
1396 1478
1396 1650
1396 1698
1396 1871
1396 1745
1396 1494
1396 1716
1396 1473
1396 1780
1396 1408
1397 1788
1397 1715
1397 1773
1397 1849
1397 1618
1397 1690
1397 1741
1397 1545
1397 1467
1397 1498
1397 1555
1397 1752
1397 1784
1397 1898
1398 1404
1398 1550
1398 1831
1398 1807
1398 1889
1398 1448
1398 1875
1398 1972
1399 1697
1399 1729
1399 1497
1399 1933
1399 1853
1399 1436
1399 1873
1399 1489
1399 1586
1399 1487
1399 1944
1399 1606
1399 1997
1400 1597
1400 1569
1400 1999
1400 1743
1400 1614
1400 1981
1400 1574
1401 1771
1401 1634
1401 1584
1401 1993
1401 1654
1401 1563
1401 1992
1402 1854
1402 1504
1402 1471
1402 1576
1402 1620
1402 1781
1403 1607
1403 1482
1403 1820
1403 1985
1403 1547
1403 1799
1403 1699
1403 1881
1403 1521
1403 1897
1403 1693
1404 1807
1404 1550
1404 1831
1404 1889
1404 1448
1404 1500
1404 1972
1404 1475
1405 1517
1405 1505
1405 1733
1405 1736
1405 1577
1405 1903
1405 1801
1405 1685
1405 1457
1406 1685
1406 1816
1406 1440
1406 1775
1406 1525
1406 1540
1406 1647
1406 1801
1406 1439
1406 1505
1406 1736
1406 1890
1407 1994
1407 1717
1407 1528
1407 1887
1407 1515
1407 1601
1407 1600
1407 1411
1407 1818
1407 1594
1407 1687
1407 1900
1408 1716
1408 1473
1408 1765
1408 1435
1408 1869
1408 1478
1408 1780
1408 1926
1408 1691
1408 1656
1408 1603
1409 1837
1409 1490
1409 1666
1409 1712
1409 1689
1409 1702
1409 1443
1409 1458
1409 1629
1409 1570
1409 1960
1409 1986
1410 1762
1410 1851
1410 1859
1411 1601
1411 1594
1411 1818
1411 1906
1411 1528
1411 1924
1411 1547
1411 1717
1411 1847
1411 1600
1411 1900
1411 1515
1411 1687
1412 1836
1412 1964
1412 1420
1412 1682
1412 1867
1412 1520
1412 1992
1412 1872
1413 1819
1413 1961
1413 1683
1413 1694
1413 1797
1413 1893
1414 1610
1414 1860
1414 1826
1414 1998
1414 1695
1414 1850
1414 1718
1414 1882
1414 1621
1414 1458
1414 1724
1415 1740
1415 1943
1416 1437
1416 1430
1416 1556
1416 1512
1416 1663
1416 1692
1416 1653
1416 1576
1416 1557
1416 1511
1416 1543
1417 1938
1417 1626
1417 1640
1417 1811
1417 1954
1417 1452
1417 1912
1417 1699
1417 1907
1417 1451
1417 1693
1417 1822
1417 1902
1418 1522
1418 1963
1418 1553
1418 1513
1418 1996
1418 1531
1418 1536
1418 1655
1418 1679
1418 1739
1418 1848
1419 1907
1419 1865
1419 1699
1419 1595
1419 1578
1419 1811
1419 1585
1419 1878
1419 1822
1419 1884
1419 1693
1420 1836
1420 1964
1420 1867
1420 1520
1420 1682
1420 1992
1420 1771
1420 1872
1421 1866
1421 1499
1421 1625
1421 1564
1421 1774
1421 1768
1421 1750
1421 1639
1421 1891
1421 1868
1421 1559
1421 1648
1421 1669
1421 1776
1421 1957
1422 1911
1422 1502
1422 1474
1422 1978
1422 1530
1422 1737
1422 1799
1422 1838
1423 1493
1423 1524
1423 1880
1423 1840
1423 1612
1423 1720
1423 1703
1423 1974
1424 1477
1424 1756
1424 1973
1424 1527
1424 1995
1424 1783
1424 1894
1424 1611
1424 1591
1424 1857
1424 1975
1425 1483
1425 1843
1425 1631
1425 1557
1427 1592
1427 1917
1427 1636
1427 1604
1427 1598
1427 1445
1427 1722
1427 1858
1427 1704
1427 1621
1427 1882
1428 1521
1428 1562
1428 1615
1428 1599
1428 1799
1428 1985
1428 1714
1428 1737
1428 1465
1428 1903
1428 1457
1429 1950
1429 1452
1429 1946
1429 1897
1429 1779
1429 1514
1429 1912
1429 1451
1429 1482
1429 1693
1429 1822
1430 1553
1430 1848
1430 1513
1430 1963
1430 1557
1430 1663
1430 1512
1430 1653
1430 1437
1430 1556
1430 1576
1430 1692
1430 1852
1431 1987
1431 1794
1431 1509
1431 1764
1431 1781
1431 1821
1432 1896
1432 1839
1432 1838
1432 1581
1432 1804
1432 1606
1432 1870
1432 1583
1432 1608
1432 1442
1432 1659
1432 1873
1432 1876
1433 1935
1433 1737
1433 1492
1433 1757
1433 1733
1433 1889
1433 1505
1433 1474
1433 1978
1433 1920
1433 1530
1434 1813
1434 1613
1435 1777
1435 1925
1435 1638
1435 1583
1435 1461
1435 1469
1435 1765
1435 1603
1435 1691
1435 1967
1435 1748
1436 1579
1436 1623
1436 1631
1436 1453
1436 1489
1436 1532
1436 1697
1436 1853
1437 1692
1437 1556
1437 1512
1437 1501
1437 1663
1437 1511
1437 1856
1437 1979
1437 1576
1437 1543
1438 1749
1438 1611
1438 1894
1438 1573
1438 1488
1438 1759
1438 1565
1438 1668
1438 1913
1438 1942
1438 1984
1439 1647
1439 1890
1439 1775
1439 1767
1439 1816
1439 1685
1439 1951
1439 1827
1439 1861
1439 1472
1439 1572
1440 1525
1440 1685
1440 1816
1440 1831
1440 1817
1440 1540
1440 1505
1440 1903
1440 1549
1440 1609
1440 1647
1440 1861
1441 1540
1441 1850
1441 1901
1441 1718
1441 1662
1441 1664
1441 1855
1441 1817
1441 1695
1441 1587
1442 1606
1442 1581
1442 1586
1442 1896
1442 1777
1442 1651
1442 1932
1442 1583
1442 1925
1442 1677
1443 1827
1443 1673
1443 1596
1443 1947
1443 1816
1443 1736
1443 1766
1443 1809
1443 1472
1443 1523
1443 1666
1444 1567
1444 1670
1444 1875
1445 1858
1445 1518
1445 1612
1445 1969
1445 1880
1445 1704
1445 1955
1445 1722
1445 1470
1445 1636
1445 1592
1445 1641
1445 1598
1445 1604
1445 1707
1445 1728
1445 1917
1446 1958
1446 1823
1446 1539
1446 1542
1446 1675
1446 1930
1446 1796
1446 1988
1446 1956
1446 1746
1447 1551
1447 1808
1447 1657
1447 1686
1447 1918
1448 1700
1448 1806
1448 1485
1448 1875
1448 1549
1449 1605
1449 1506
1449 1460
1449 1593
1449 1700
1449 1708
1450 1720
1451 1912
1451 1452
1451 1811
1451 1950
1451 1822
1452 1912
1452 1950
1452 1938
1452 1811
1452 1822
1453 1623
1453 1631
1453 1848
1453 1802
1453 1852
1454 1645
1454 1945
1454 1787
1454 1616
1454 1974
1454 1534
1454 1493
1454 1821
1455 1703
1455 1872
1455 1520
1455 1974
1455 1758
1455 1705
1455 1867
1455 1787
1455 1524
1455 1616
1455 1493
1456 1746
1456 1952
1456 1778
1456 1730
1456 1953
1456 1510
1456 1796
1456 1476
1456 1507
1456 1864
1456 1930
1457 1465
1457 1903
1457 1599
1457 1615
1457 1517
1457 1562
1457 1714
1457 1733
1457 1755
1458 1570
1458 1702
1458 1629
1458 1621
1458 1695
1458 1718
1458 1809
1458 1490
1458 1837
1459 1571
1459 1732
1459 1469
1459 1656
1459 1480
1459 1879
1459 1967
1459 1970
1459 1638
1459 1461
1459 1925
1459 1926
1459 1932
1460 1662
1460 1664
1460 1860
1460 1593
1460 1882
1460 1695
1460 1610
1460 1549
1460 1826
1461 1925
1461 1777
1461 1589
1461 1677
1461 1879
1461 1469
1461 1561
1461 1763
1461 1656
1461 1735
1461 1926
1462 1741
1462 1966
1462 1849
1463 1726
1463 1845
1463 1751
1463 1466
1463 1483
1463 1723
1463 1927
1464 1792
1464 1495
1464 1533
1464 1948
1464 1625
1464 1891
1464 1824
1464 1808
1464 1828
1465 1599
1465 1615
1465 1714
1465 1903
1465 1562
1465 1755
1465 1521
1465 1572
1466 1927
1467 1690
1467 1952
1467 1652
1467 1849
1467 1510
1467 1503
1467 1545
1468 1793
1468 1486
1468 1919
1468 1670
1468 1549
1468 1567
1469 1638
1469 1732
1469 1967
1469 1571
1469 1583
1469 1691
1469 1925
1469 1581
1469 1608
1469 1656
1469 1777
1469 1839
1469 1932
1469 1970
1470 1641
1470 1722
1470 1560
1470 1858
1470 1704
1470 1880
1470 1959
1470 1518
1470 1969
1470 1612
1470 1524
1470 1882
1470 1998
1472 1767
1472 1947
1472 1523
1472 1596
1472 1827
1472 1890
1472 1673
1472 1766
1473 1716
1473 1869
1473 1765
1473 1478
1473 1888
1473 1780
1473 1791
1473 1603
1473 1494
1473 1883
1473 1745
1473 1871
1474 1911
1474 1978
1474 1737
1474 1492
1474 1889
1474 1530
1474 1502
1474 1550
1474 1799
1475 1633
1475 1500
1475 1710
1475 1929
1475 1807
1475 1820
1475 1982
1475 1609
1475 1602
1475 1626
1475 1640
1475 1902
1476 1588
1476 1730
1476 1953
1477 1527
1477 1973
1477 1756
1477 1611
1477 1894
1477 1591
1477 1962
1477 1642
1477 1759
1477 1995
1478 1869
1478 1871
1478 1780
1478 1716
1478 1888
1478 1989
1478 1765
1478 1883
1478 1791
1478 1494
1479 1546
1479 1568
1479 1544
1479 1786
1479 1536
1479 1844
1480 1571
1480 1732
1480 1970
1480 1656
1480 1967
1480 1667
1480 1975
1480 1877
1480 1926
1481 1573
1481 1611
1481 1721
1481 1484
1481 1622
1481 1749
1482 1607
1482 1897
1482 1822
1482 1693
1482 1881
1482 1699
1482 1547
1482 1820
1482 1946
1483 1723
1483 1726
1483 1744
1484 1731
1484 1734
1484 1853
1484 1487
1484 1622
1484 1761
1485 1538
1485 1806
1485 1700
1485 1708
1486 1919
1486 1793
1486 1549
1486 1670
1486 1567
1486 1875
1487 1932
1487 1853
1487 1651
1487 1731
1487 1697
1487 1734
1487 1606
1487 1608
1487 1814
1487 1586
1487 1622
1487 1729
1487 1761
1488 1575
1488 1688
1488 1762
1488 1580
1488 1894
1488 1895
1489 1846
1489 1729
1489 1997
1489 1853
1489 1852
1489 1834
1489 1802
1489 1761
1489 1697
1489 1496
1489 1622
1490 1837
1490 1666
1490 1629
1490 1570
1490 1702
1490 1712
1491 1916
1491 1613
1491 1980
1491 1659
1491 1711
1491 1804
1492 1978
1492 1530
1492 1737
1492 1935
1492 1813
1492 1661
1492 1502
1492 1754
1492 1757
1493 1974
1493 1616
1493 1840
1493 1534
1493 1645
1493 1703
1493 1524
1493 1915
1493 1880
1493 1787
1493 1821
1493 1945
1494 1745
1494 1883
1494 1770
1494 1899
1494 1905
1494 1989
1494 1650
1494 1698
1494 1886
1494 1716
1494 1603
1494 1691
1494 1869
1495 1559
1495 1798
1495 1923
1495 1792
1495 1639
1495 1499
1495 1625
1495 1750
1495 1891
1496 1802
1496 1679
1496 1660
1496 1968
1496 1996
1496 1531
1496 1846
1496 1680
1496 1941
1496 1672
1496 1681
1496 1825
1496 1834
1497 1881
1497 1944
1497 1933
1497 1697
1497 1873
1497 1870
1497 1946
1497 1514
1497 1779
1497 1586
1497 1729
1497 1897
1498 1675
1498 1956
1498 1555
1498 1898
1498 1542
1498 1773
1498 1618
1498 1788
1498 1539
1498 1715
1498 1958
1499 1639
1499 1866
1499 1625
1499 1750
1499 1559
1499 1891
1499 1923
1499 1564
1499 1774
1500 1982
1500 1633
1500 1541
1500 1807
1500 1710
1500 1806
1500 1844
1500 1929
1501 1979
1501 1856
1501 1678
1501 1548
1501 1573
1501 1558
1501 1749
1501 1852
1501 1565
1501 1692
1502 1530
1502 1911
1502 1661
1502 1737
1502 1978
1502 1754
1502 1838
1502 1799
1502 1892
1502 1991
1503 1652
1503 1510
1503 1690
1503 1952
1504 1904
1504 1563
1504 1771
1504 1854
1504 1993
1505 1801
1505 1517
1505 1733
1505 1903
1505 1577
1506 1605
1506 1593
1506 1724
1506 1921
1507 1778
1507 1752
1507 1566
1507 1930
1507 1796
1507 1864
1507 1746
1507 1730
1508 1937
1508 1555
1508 1898
1508 1719
1508 1709
1508 1772
1508 1773
1508 1750
1509 1803
1509 1794
1509 1795
1509 1910
1509 1987
1510 1652
1510 1952
1511 1543
1511 1692
1511 1512
1511 1653
1511 1830
1511 1663
1511 1684
1511 1556
1512 1653
1512 1663
1512 1692
1512 1531
1512 1543
1512 1556
1512 1672
1512 1684
1512 1830
1512 1852
1513 1963
1513 1553
1513 1522
1513 1848
1513 1655
1513 1739
1514 1779
1514 1946
1514 1552
1514 1881
1514 1897
1514 1944
1514 1950
1514 1968
1515 1528
1515 1615
1515 1994
1515 1717
1515 1599
1515 1547
1515 1521
1515 1585
1515 1687
1516 1628
1516 1842
1516 1991
1516 1892
1516 1785
1516 1887
1516 1747
1516 1920
1516 1661
1516 1994
1516 1711
1516 1754
1516 1990
1517 1903
1517 1733
1517 1685
1517 1736
1517 1775
1517 1801
1518 1612
1518 1969
1518 1858
1518 1880
1518 1704
1518 1955
1518 1641
1518 1812
1518 1560
1518 1524
1518 1604
1518 1722
1518 1728
1519 1999
1519 1743
1519 1835
1519 1569
1519 1981
1519 1899
1520 1872
1520 1964
1520 1867
1520 1703
1520 1682
1520 1758
1520 1705
1520 1620
1521 1985
1521 1799
1521 1615
1521 1599
1521 1562
1521 1547
1521 1714
1521 1737
1521 1911
1522 1553
1522 1848
1522 1963
1523 1947
1523 1596
1523 1766
1523 1673
1523 1809
1523 1767
1523 1827
1524 1705
1524 1758
1524 1880
1524 1720
1524 1959
1524 1612
1524 1969
1524 1641
1524 1703
1524 1858
1525 1817
1525 1609
1525 1831
1525 1861
1525 1685
1525 1816
1525 1647
1525 1572
1526 1980
1526 1782
1527 1721
1527 1879
1527 1973
1527 1611
1527 1591
1527 1962
1527 1731
1527 1932
1527 1783
1527 1642
1528 1717
1528 1601
1528 1994
1528 1594
1528 1818
1528 1887
1528 1906
1528 1600
1528 1687
1528 1900
1529 1644
1529 1674
1529 1910
1530 1978
1530 1754
1530 1661
1530 1737
1530 1911
1530 1613
1530 1711
1530 1838
1530 1991
1531 1996
1531 1802
1531 1679
1531 1653
1531 1663
1531 1848
1531 1655
1531 1672
1531 1852
1532 1936
1532 1676
1532 1751
1532 1579
1532 1873
1532 1933
1532 1726
1532 1608
1533 1808
1533 1657
1533 1792
1533 1943
1534 1945
1534 1645
1534 1674
1534 1987
1534 1863
1534 1616
1534 1977
1534 1910
1534 1781
1534 1821
1536 1742
1536 1739
1536 1544
1537 1760
1537 1949
1537 1825
1537 1941
1537 1841
1537 1681
1537 1830
1537 1672
1537 1680
1537 1684
1537 1660
1538 1940
1538 1546
1538 1568
1538 1786
1539 1675
1539 1542
1539 1958
1539 1823
1539 1988
1539 1788
1539 1956
1540 1664
1540 1662
1540 1816
1540 1718
1540 1817
1540 1685
1540 1901
1541 1630
1541 1982
1541 1807
1541 1820
1542 1675
1542 1958
1542 1956
1542 1788
1542 1715
1542 1898
1543 1684
1543 1692
1543 1830
1543 1653
1543 1672
1543 1663
1544 1546
1544 1568
1544 1844
1545 1784
1545 1849
1545 1833
1545 1986
1545 1741
1545 1690
1545 1752
1545 1952
1545 1715
1545 1960
1546 1568
1546 1786
1546 1940
1547 1985
1547 1607
1547 1799
1547 1906
1547 1594
1547 1585
1547 1699
1547 1687
1547 1865
1547 1884
1547 1900
1548 1678
1548 1565
1548 1622
1548 1573
1548 1761
1548 1979
1548 1749
1548 1668
1548 1984
1548 1997
1548 1913
1549 1700
1549 1919
1549 1831
1549 1793
1549 1550
1549 1875
1549 1662
1549 1567
1550 1889
1550 1831
1550 1875
1550 1567
1550 1562
1550 1807
1550 1670
1551 1686
1551 1918
1551 1877
1551 1808
1551 1657
1552 1934
1552 1779
1552 1912
1552 1938
1552 1954
1553 1963
1553 1848
1553 1655
1553 1739
1554 1706
1554 1587
1554 1855
1554 1901
1554 1844
1554 1568
1554 1817
1554 1665
1554 1806
1554 1710
1555 1898
1555 1773
1555 1618
1555 1937
1555 1956
1555 1675
1556 1576
1556 1692
1556 1854
1556 1563
1556 1557
1556 1856
1557 1701
1557 1843
1557 1576
1558 1979
1558 1856
1558 1749
1558 1624
1558 1678
1558 1696
1559 1639
1559 1923
1559 1625
1559 1750
1559 1774
1560 1641
1560 1704
1560 1722
1560 1858
1560 1959
1560 1882
1560 1969
1560 1593
1560 1880
1560 1612
1560 1636
1560 1998
1561 1763
1561 1677
1561 1735
1561 1814
1561 1962
1561 1589
1561 1879
1561 1591
1561 1642
1561 1651
1561 1857
1561 1874
1562 1903
1562 1889
1562 1831
1562 1737
1562 1615
1562 1599
1562 1714
1562 1985
1563 1993
1563 1576
1563 1619
1563 1786
1563 1854
1563 1584
1563 1634
1564 1774
1564 1983
1564 1859
1564 1725
1564 1891
1564 1639
1564 1957
1565 1678
1565 1668
1565 1984
1565 1573
1565 1913
1565 1622
1565 1749
1565 1761
1566 1778
1566 1577
1566 1864
1566 1893
1566 1689
1566 1733
1566 1801
1567 1670
1567 1793
1567 1919
1567 1875
1567 1914
1568 1844
1568 1940
1568 1786
1568 1706
1569 1999
1569 1743
1569 1597
1569 1899
1569 1905
1569 1981
1569 1650
1569 1698
1569 1770
1569 1886
1570 1629
1570 1702
1570 1621
1570 1809
1570 1695
1570 1718
1570 1837
1570 1673
1571 1732
1571 1656
1571 1970
1571 1967
1571 1926
1571 1879
1571 1691
1571 1638
1572 1755
1572 1951
1572 1602
1572 1861
1572 1609
1572 1647
1572 1714
1572 1775
1573 1749
1573 1678
1573 1611
1573 1622
1573 1668
1573 1761
1573 1913
1573 1979
1573 1984
1574 1657
1574 1769
1574 1597
1575 1688
1575 1762
1575 1580
1575 1756
1575 1895
1576 1854
1576 1993
1577 1733
1577 1893
1577 1757
1577 1935
1577 1801
1577 1778
1577 1864
1578 1878
1578 1595
1578 1907
1578 1865
1578 1585
1578 1699
1578 1902
1578 1755
1578 1626
1578 1714
1578 1602
1579 1676
1579 1751
1579 1726
1580 1688
1580 1895
1580 1762
1580 1894
1580 1851
1580 1942
1581 1896
1581 1606
1581 1583
1581 1839
1581 1932
1581 1608
1581 1638
1581 1777
1581 1586
1581 1925
1582 1618
1582 1690
1583 1638
1583 1777
1583 1896
1583 1748
1583 1925
1583 1839
1583 1603
1583 1765
1584 1634
1584 1993
1584 1771
1584 1786
1584 1654
1584 1992
1585 1865
1585 1884
1585 1595
1585 1907
1585 1699
1585 1878
1585 1714
1585 1687
1586 1697
1586 1606
1586 1729
1586 1651
1586 1896
1586 1933
1587 1855
1587 1706
1587 1901
1587 1665
1587 1850
1587 1817
1587 1662
1588 1713
1588 1953
1588 1805
1588 1727
1588 1823
1589 1879
1589 1763
1589 1677
1589 1925
1589 1926
1589 1591
1589 1735
1590 1627
1591 1973
1591 1962
1591 1857
1591 1995
1591 1756
1591 1879
1591 1763
1591 1642
1591 1814
1591 1874
1591 1975
1592 1917
1592 1636
1592 1604
1592 1598
1592 1722
1592 1858
1592 1704
1592 1621
1592 1882
1593 1959
1593 1605
1593 1641
1593 1704
1593 1882
1594 1818
1594 1906
1594 1924
1594 1601
1594 1876
1594 1600
1594 1635
1594 1717
1594 1838
1594 1847
1594 1900
1595 1878
1595 1865
1595 1907
1595 1884
1595 1699
1595 1714
1595 1755
1595 1626
1596 1766
1596 1947
1596 1673
1596 1827
1596 1809
1596 1767
1597 1999
1597 1743
1597 1905
1598 1604
1598 1917
1598 1636
1598 1986
1598 1833
1598 1712
1598 1704
1598 1728
1599 1615
1599 1714
1599 1903
1599 1799
1599 1985
1599 1755
1600 1635
1600 1601
1600 1887
1600 1717
1600 1990
1600 1818
1600 1924
1600 1738
1600 1994
1600 1847
1600 1748
1600 1928
1601 1818
1601 1924
1601 1717
1601 1847
1601 1906
1601 1635
1601 1687
1601 1900
1601 1994
1602 1609
1602 1861
1602 1755
1602 1929
1602 1710
1602 1902
1602 1951
1602 1714
1602 1633
1603 1716
1603 1765
1603 1691
1603 1748
1603 1638
1603 1791
1603 1770
1603 1745
1603 1928
1603 1780
1603 1888
1603 1967
1604 1636
1604 1917
1604 1712
1604 1986
1604 1833
1604 1704
1604 1858
1605 1724
1605 1921
1606 1896
1606 1697
1606 1870
1606 1933
1606 1873
1606 1839
1606 1608
1607 1881
1607 1897
1607 1944
1607 1820
1607 1985
1607 1870
1607 1822
1607 1693
1608 1839
1608 1804
1608 1932
1608 1659
1608 1896
1609 1861
1609 1710
1609 1817
1609 1929
1609 1633
1609 1831
1609 1714
1609 1755
1609 1951
1610 1826
1610 1860
1610 1850
1610 1665
1610 1724
1610 1998
1610 1695
1610 1882
1610 1718
1611 1894
1611 1749
1611 1759
1612 1880
1612 1969
1612 1858
1612 1955
1612 1812
1612 1704
1612 1641
1612 1728
1613 1711
1613 1754
1613 1694
1613 1661
1613 1961
1613 1991
1613 1683
1613 1797
1614 1805
1614 1835
1614 1981
1614 1713
1614 1727
1615 1714
1615 1737
1615 1799
1615 1985
1616 1974
1616 1821
1616 1645
1616 1781
1616 1787
1616 1945
1616 1703
1617 1868
1617 1789
1617 1768
1617 1669
1617 1648
1617 1776
1617 1674
1617 1945
1617 1863
1617 1977
1617 1719
1617 1810
1618 1773
1618 1898
1618 1937
1618 1788
1618 1956
1619 1940
1619 1786
1619 1993
1620 1872
1620 1771
1620 1781
1620 1964
1620 1821
1621 1629
1621 1702
1621 1695
1621 1718
1621 1882
1621 1837
1621 1998
1622 1761
1622 1853
1622 1997
1622 1678
1622 1668
1622 1913
1622 1984
1623 1631
1623 1843
1624 1790
1624 1764
1625 1750
1625 1891
1625 1828
1625 1792
1625 1866
1625 1639
1626 1938
1626 1640
1626 1699
1626 1902
1626 1907
1626 1954
1626 1820
1626 1929
1628 1842
1628 1892
1628 1991
1628 1747
1628 1785
1628 1920
1628 1887
1628 1661
1628 1711
1628 1994
1629 1702
1629 1809
1629 1837
1629 1695
1629 1718
1629 1673
1629 1766
1630 1982
1630 1807
1630 1820
1630 1944
1631 1843
1632 1886
1632 1899
1632 1698
1632 1727
1632 1883
1632 1743
1632 1650
1632 1981
1632 1989
1632 1805
1632 1999
1633 1710
1633 1929
1633 1640
1633 1844
1633 1902
1633 1954
1634 1771
1634 1993
1634 1786
1634 1654
1634 1992
1634 1836
1635 1990
1635 1928
1635 1738
1635 1748
1635 1887
1635 1924
1635 1818
1635 1717
1635 1785
1635 1842
1635 1847
1636 1917
1636 1704
1636 1882
1636 1858
1636 1712
1636 1722
1637 1922
1637 1682
1637 1705
1637 1758
1637 1921
1637 1992
1638 1967
1638 1691
1638 1732
1638 1777
1638 1925
1638 1748
1638 1765
1638 1839
1639 1923
1639 1750
1639 1774
1639 1866
1640 1938
1640 1954
1640 1902
1640 1929
1641 1722
1641 1704
1641 1858
1641 1959
1641 1969
1641 1880
1641 1882
1641 1998
1642 1814
1642 1962
1642 1763
1642 1735
1642 1973
1642 1677
1642 1651
1642 1668
1642 1913
1643 1713
1643 1988
1644 1840
1645 1945
1645 1974
1645 1821
1645 1787
1645 1674
1647 1775
1647 1890
1647 1685
1647 1816
1647 1951
1647 1861
1647 1767
1648 1669
1648 1868
1648 1776
1648 1768
1648 1789
1648 1866
1648 1810
1648 1957
1648 1863
1648 1977
1650 1698
1650 1989
1650 1883
1650 1745
1650 1905
1650 1899
1650 1886
1650 1871
1651 1735
1651 1814
1651 1677
1651 1763
1651 1932
1651 1879
1651 1761
1652 1690
1652 1849
1652 1952
1653 1663
1653 1672
1653 1655
1653 1852
1653 1684
1653 1692
1653 1830
1654 1992
1654 1682
1654 1771
1654 1993
1655 1739
1655 1841
1655 1681
1655 1963
1655 1949
1656 1970
1656 1926
1656 1732
1656 1967
1656 1691
1656 1879
1657 1808
1657 1769
1657 1918
1658 1875
1659 1804
1659 1839
1659 1782
1659 1916
1659 1711
1660 1680
1660 1968
1660 1846
1660 1941
1660 1834
1660 1802
1660 1825
1660 1679
1660 1672
1660 1681
1660 1760
1660 1949
1661 1754
1661 1991
1661 1892
1661 1711
1661 1920
1661 1747
1661 1737
1661 1694
1661 1935
1662 1664
1662 1901
1662 1817
1662 1855
1662 1850
1662 1718
1662 1860
1662 1695
1663 1852
1663 1802
1663 1672
1663 1692
1664 1695
1664 1718
1664 1702
1664 1860
1664 1901
1665 1850
1665 1855
1665 1860
1665 1826
1665 1724
1665 1901
1665 1706
1666 1689
1666 1837
1666 1960
1666 1712
1666 1986
1668 1913
1668 1984
1668 1678
1668 1761
1668 1759
1669 1768
1669 1868
1669 1789
1669 1866
1669 1776
1669 1719
1669 1674
1669 1863
1670 1793
1670 1875
1670 1919
1670 1914
1672 1941
1672 1760
1672 1684
1672 1825
1672 1834
1672 1802
1672 1830
1672 1949
1673 1809
1673 1766
1673 1947
1673 1702
1673 1827
1674 1863
1674 1910
1674 1789
1674 1977
1674 1987
1674 1868
1674 1768
1674 1945
1674 1810
1675 1956
1675 1788
1675 1958
1675 1898
1675 1773
1675 1715
1676 1751
1676 1726
1676 1936
1677 1735
1677 1763
1677 1814
1677 1879
1677 1932
1677 1925
1677 1777
1678 1979
1678 1749
1678 1761
1678 1856
1678 1913
1678 1984
1679 1996
1679 1802
1679 1968
1679 1934
1679 1680
1679 1846
1680 1681
1680 1825
1680 1941
1680 1968
1680 1949
1680 1760
1680 1802
1680 1834
1680 1841
1681 1949
1681 1841
1681 1825
1681 1760
1681 1941
1681 1739
1682 1992
1682 1836
1682 1771
1682 1867
1682 1964
1683 1694
1683 1797
1683 1757
1683 1961
1683 1819
1683 1935
1683 1920
1683 1893
1683 1813
1683 1747
1684 1830
1684 1941
1684 1760
1684 1825
1684 1692
1685 1816
1685 1775
1685 1890
1685 1736
1685 1951
1686 1918
1686 1877
1686 1725
1686 1891
1686 1975
1687 1900
1687 1884
1687 1717
1687 1847
1687 1865
1688 1762
1688 1895
1688 1851
1689 1960
1689 1784
1689 1986
1689 1833
1689 1801
1689 1752
1690 1849
1690 1741
1690 1952
1691 1967
1691 1770
1691 1732
1691 1745
1691 1970
1691 1905
1691 1716
1691 1926
1693 1822
1693 1811
1693 1699
1693 1897
1693 1865
1693 1884
1694 1797
1694 1757
1694 1961
1694 1935
1694 1920
1694 1819
1694 1813
1694 1747
1694 1754
1694 1892
1694 1893
1695 1718
1695 1702
1695 1860
1695 1882
1695 1850
1695 1998
1696 1856
1696 1979
1697 1729
1697 1933
1697 1853
1697 1873
1697 1997
1698 1989
1698 1883
1698 1745
1698 1899
1698 1886
1698 1905
1698 1743
1698 1871
1699 1907
1699 1865
1699 1822
1699 1811
1699 1878
1699 1884
1700 1806
1700 1708
1701 1843
1701 1931
1702 1718
1702 1809
1702 1712
1702 1837
1703 1758
1703 1705
1703 1974
1703 1872
1703 1880
1703 1787
1703 1867
1704 1969
1704 1858
1704 1882
1704 1722
1704 1880
1704 1917
1705 1758
1705 1959
1705 1922
1705 1720
1705 1872
1706 1855
1706 1901
1706 1817
1706 1844
1706 1710
1707 1728
1707 1772
1707 1709
1707 1915
1707 1955
1707 1885
1707 1812
1707 1840
1708 1829
1709 1772
1709 1915
1709 1728
1709 1840
1709 1719
1710 1929
1710 1902
1710 1844
1710 1861
1711 1991
1711 1754
1711 1842
1711 1990
1711 1804
1711 1892
1712 1837
1712 1986
1712 1833
1712 1917
1713 1988
1713 1823
1714 1755
1714 1985
1714 1878
1715 1788
1715 1752
1715 1773
1715 1784
1715 1849
1715 1960
1715 1958
1716 1765
1716 1869
1716 1791
1716 1745
1716 1888
1716 1883
1716 1780
1716 1871
1717 1994
1717 1887
1717 1818
1717 1900
1718 1850
1718 1809
1718 1860
1719 1768
1719 1750
1719 1789
1719 1868
1719 1772
1719 1866
1721 1731
1722 1858
1722 1882
1722 1998
1722 1880
1722 1917
1723 1726
1724 1826
1724 1860
1725 1983
1725 1891
1725 1923
1725 1862
1725 1792
1725 1824
1726 1751
1726 1845
1727 1805
1727 1981
1727 1835
1727 1743
1728 1955
1728 1812
1728 1915
1728 1885
1728 1772
1729 1846
1729 1853
1729 1997
1729 1761
1729 1834
1730 1953
1730 1864
1730 1778
1730 1746
1730 1796
1730 1930
1731 1734
1732 1967
1732 1970
1732 1879
1732 1926
1733 1935
1733 1757
1733 1893
1735 1814
1735 1763
1735 1879
1735 1962
1735 1932
1736 1816
1736 1801
1736 1775
1737 1889
1737 1911
1737 1978
1737 1935
1737 1799
1738 1748
1738 1791
1738 1928
1738 1888
1738 1990
1738 1887
1738 1785
1738 1765
1738 1847
1739 1963
1739 1742
1739 1841
1741 1849
1742 1934
1743 1999
1743 1899
1743 1981
1743 1886
1743 1905
1745 1883
1745 1905
1745 1770
1745 1989
1745 1899
1745 1886
1746 1796
1746 1953
1746 1930
1746 1788
1746 1778
1746 1958
1747 1920
1747 1892
1747 1935
1747 1757
1747 1991
1747 1754
1748 1928
1748 1791
1748 1990
1748 1765
1748 1888
1749 1979
1749 1984
1750 1866
1750 1828
1750 1937
1750 1768
1751 1845
1752 1784
1752 1960
1752 1778
1752 1986
1752 1833
1753 1909
1753 1815
1753 1948
1753 1828
1754 1991
1754 1892
1754 1978
1754 1920
1755 1951
1755 1878
1755 1861
1756 1973
1756 1995
1756 1894
1756 1962
1756 1857
1756 1759
1756 1874
1756 1942
1756 1975
1757 1935
1757 1893
1757 1920
1757 1797
1758 1959
1758 1922
1758 1921
1758 1872
1759 1894
1759 1942
1759 1984
1759 1973
1759 1913
1759 1874
1760 1825
1760 1949
1760 1941
1760 1841
1760 1830
1761 1997
1761 1853
1761 1913
1762 1851
1762 1895
1763 1814
1763 1879
1763 1962
1763 1932
1764 1790
1764 1987
1765 1791
1765 1888
1765 1869
1765 1780
1766 1947
1766 1809
1766 1827
1767 1890
1767 1827
1767 1775
1767 1947
1767 1816
1767 1951
1768 1868
1768 1789
1768 1866
1768 1863
1768 1776
1768 1810
1768 1957
1769 1815
1769 1909
1770 1905
1770 1967
1770 1883
1770 1970
1771 1992
1771 1993
1771 1836
1771 1964
1772 1915
1772 1840
1772 1885
1773 1898
1773 1788
1773 1937
1773 1956
1774 1859
1774 1983
1774 1832
1774 1957
1774 1866
1775 1816
1775 1890
1775 1827
1775 1861
1775 1951
1776 1868
1776 1810
1776 1789
1776 1957
1776 1866
1776 1977
1776 1863
1777 1925
1777 1896
1778 1864
1778 1952
1778 1893
1778 1953
1778 1796
1778 1930
1779 1946
1779 1950
1779 1968
1779 1881
1779 1897
1780 1869
1780 1888
1780 1871
1780 1791
1780 1989
1781 1821
1781 1974
1781 1987
1782 1980
1782 1916
1782 1804
1784 1833
1784 1986
1784 1960
1784 1849
1785 1842
1785 1928
1785 1990
1785 1791
1785 1887
1785 1991
1785 1888
1785 1994
1786 1993
1786 1940
1787 1974
1787 1821
1787 1945
1787 1872
1788 1849
1788 1898
1788 1958
1789 1868
1789 1863
1789 1977
1789 1866
1789 1910
1789 1810
1789 1945
1790 1803
1791 1888
1791 1928
1791 1869
1791 1990
1791 1871
1792 1824
1792 1808
1792 1891
1792 1923
1793 1919
1794 1987
1795 1803
1796 1930
1796 1953
1796 1958
1796 1823
1796 1864
1797 1961
1797 1819
1797 1835
1797 1920
1798 1828
1799 1985
1799 1911
1799 1906
1800 1939
1800 1975
1802 1996
1802 1846
1802 1968
1802 1852
1802 1834
1804 1839
1804 1838
1804 1916
1805 1981
1805 1835
1807 1820
1807 1972
1807 1982
1807 1831
1807 1985
1808 1824
1809 1947
1810 1957
1810 1977
1810 1863
1810 1868
1810 1910
1811 1822
1811 1907
1811 1912
1812 1955
1812 1969
1812 1915
1813 1893
1814 1962
1814 1879
1814 1932
1815 1909
1816 1890
1816 1827
1817 1901
1817 1855
1817 1861
1818 1924
1818 1906
1818 1876
1818 1838
1818 1847
1818 1900
1819 1961
1820 1985
1820 1982
1820 1954
1820 1938
1821 1974
1822 1897
1822 1865
1822 1884
1822 1907
1823 1988
1823 1953
1824 1923
1825 1941
1825 1949
1825 1841
1825 1834
1826 1860
1826 1998
1826 1850
1826 1882
1826 1921
1827 1890
1827 1947
1828 1948
1828 1937
1828 1909
1830 1841
1830 1949
1830 1941
1831 1889
1831 1903
1832 1859
1832 1910
1832 1987
1833 1986
1833 1960
1833 1917
1834 1846
1834 1997
1834 1941
1834 1968
1835 1961
1835 1981
1836 1964
1836 1992
1836 1867
1838 1906
1838 1924
1838 1990
1838 1839
1838 1896
1839 1896
1840 1915
1841 1949
1841 1941
1842 1990
1842 1991
1842 1928
1842 1887
1842 1994
1842 1892
1844 1929
1846 1968
1846 1997
1846 1996
1847 1924
1847 1876
1847 1900
1848 1963
1848 1852
1849 1952
1850 1860
1850 1901
1850 1855
1851 1895
1851 1957
1851 1859
1852 1997
1853 1997
1855 1901
1856 1979
1857 1995
1857 1973
1857 1962
1857 1874
1857 1975
1857 1942
1858 1969
1858 1880
1858 1917
1859 1983
1859 1957
1860 1882
1860 1998
1861 1951
1862 1983
1863 1977
1863 1910
1863 1987
1863 1868
1863 1957
1863 1945
1864 1953
1864 1893
1865 1884
1865 1907
1865 1878
1866 1868
1867 1964
1867 1872
1867 1992
1868 1977
1868 1957
1869 1871
1869 1989
1869 1883
1869 1888
1870 1933
1870 1873
1870 1944
1870 1881
1870 1876
1870 1896
1871 1989
1871 1888
1871 1883
1872 1964
1872 1974
1873 1933
1873 1936
1873 1944
1873 1881
1874 1942
1874 1962
1874 1995
1874 1973
1875 1889
1875 1919
1876 1924
1876 1906
1876 1896
1878 1907
1878 1884
1878 1902
1879 1932
1879 1962
1880 1969
1880 1955
1881 1944
1881 1897
1881 1933
1881 1946
1881 1950
1882 1998
1883 1989
1883 1899
1883 1886
1883 1905
1884 1900
1884 1907
1885 1955
1886 1899
1886 1989
1886 1999
1886 1981
1887 1994
1887 1990
1887 1928
1888 1928
1889 1903
1889 1911
1890 1951
1891 1923
1891 1983
1892 1920
1892 1991
1892 1935
1893 1935
1894 1973
1894 1942
1894 1984
1894 1995
1897 1946
1897 1950
1897 1944
1898 1937
1898 1956
1899 1999
1899 1981
1899 1989
1900 1924
1902 1929
1902 1938
1902 1954
1902 1907
1905 1989
1905 1999
1906 1924
1906 1985
1909 1956
1910 1987
1910 1977
1911 1978
1911 1985
1912 1938
1913 1984
1915 1955
1916 1980
1917 1986
1918 1970
1920 1935
1920 1991
1921 1959
1922 1959
1926 1970
1926 1967
1928 1990
1928 1991
1929 1954
1930 1953
1930 1958
1933 1944
1933 1936
1934 1968
1936 1944
1937 1956
1938 1954
1939 1975
1941 1949
1942 1995
1942 1973
1942 1984
1945 1977
1946 1950
1946 1968
1950 1968
1955 1969
1957 1977
1960 1986
1962 1973
1962 1995
1964 1992
1967 1970
1968 1996
1973 1995
1973 1975
1975 1995
1977 1987
1981 1999
1990 1991
